 VASP POSCAR/CONTCAR file created by 'ta
   8.78578860599888     
     1.0000000000000000    0.0000000000000000    0.0000000000000000
     0.0000000000000000    1.0000000043698918    0.0000000000000000
     0.0000000000000000    0.0000000000000000    0.9999999974747837
   Fe    O    Pb
   55    25   1
Direct
  0.1203539041191934  0.9574640850529900  0.4697092019050704
  0.5166214986869406  0.9082276132117665  0.0617732948044721
  0.6976762460163426  0.8613414495729770  0.7164368749979670
  0.3350261464828574  0.8498043963743266  0.8136296434116094
  0.1726237449532780  0.3391768522035546  0.9055006126980252
  0.9028207477929150  0.5352441106050382  0.2941299583636121
  0.8453865660818808  0.1356799229191026  0.8649316571163383
  0.4582964860629241  0.2066345368013923  0.0502179117550502
  0.2238642478744275  0.1004283147619621  0.9194794366444898
  0.6398012036934198  0.5572267593927615  0.4422538623911355
  0.7803683996978674  0.8933155948962360  0.9514369460898927
  0.8270494573786334  0.6332637481243137  0.0814766586665071
  0.3278232812251191  0.6322482715045227  0.2851333620839084
  0.8145215949758524  0.9869974243544515  0.1849393766164598
  0.5397943809807214  0.9883947395927454  0.8279551595728907
  0.6560865682571180  0.1407776277110195  0.4283793909423430
  0.0759450867882860  0.1571458188662575  0.6963074503885226
  0.0037689904899933  0.1279520550767247  0.0375934718235133
  0.0492752740439571  0.3210805117496778  0.2906199897598178
  0.1488500059021085  0.6163472641328474  0.7370098985613618
  0.9172094185055553  0.9996167376063755  0.6739834209078734
  0.8835578254485352  0.7426965825467732  0.8283913379395553
  0.6004334610892603  0.6802937670572462  0.9295911424915143
  0.0832217644711568  0.8739317568157244  0.7766120647130428
  0.5664252587731664  0.4012089274701387  0.6649486298016744
  0.8915741310434550  0.3930810713641176  0.0229450171475611
  0.5806311520820665  0.4394265366959499  0.0563018688898647
  0.6818432466133704  0.3203775861361691  0.9007203488470946
  0.7719023861598920  0.2044625175627738  0.2424807701530636
  0.7498891679242347  0.6288530467328713  0.6045100069527459
  0.3472626440956899  0.4391477807623853  0.1080720549865986
  0.9181801175835224  0.7477981404162681  0.3672411266276562
  0.0201476800886233  0.4999549871244305  0.4800445915525886
  0.3355787738472959  0.3721610934543540  0.3853816201234667
  0.0254345826539606  0.7548522625880755  0.1673817859141148
  0.7292159420093405  0.2670489616815815  0.6811030177294290
  0.1920372645403922  0.2460738801378025  0.1246373482722213
  0.1713406945050735  0.5688214151542361  0.9837255383868927
  0.4557283256119416  0.2416576928733135  0.7773310159693277
  0.7011130606389646  0.0974388286029388  0.0126956711310975
  0.4302174822339352  0.1187290385670856  0.3204561150444163
  0.4227143008011808  0.4745534102439666  0.8411320607264877
  0.8583370177259074  0.4617149842059619  0.7889663500145739
  0.2825239410159425  0.7509788030911480  0.0658996286073078
  0.8166512190606667  0.3373690928259233  0.4076507952243567
  0.3247586786137605  0.0234735437469731  0.6781526125815421
  0.4985129176356353  0.7235924764810636  0.6842977364168988
  0.3080078530518056  0.9865159028177741  0.1688860246683007
  0.3006576843726229  0.5346219120466450  0.5855715697025871
  0.0618084754185290  0.9017525315423400  0.9919141645085588
  0.8792303325663845  0.0856809972433503  0.4316963313441803
  0.0490249648919741  0.0427960454639393  0.2336943539671011
  0.1498209004088045  0.2367149379250949  0.5281990782682239
  0.4104550095612033  0.8911586347170504  0.4798080089681748
  0.6698125188138961  0.7470026891140711  0.2439965895354164
  0.5793955694761377  0.5713933325660707  0.7737843739308070
  0.7073627375704984  0.4705160550584054  0.2049914334985618
  0.2810158306900068  0.8446007221697019  0.6344808556679892
  0.5550739139450831  0.2235821963941649  0.2167477560032980
  0.7978457527900059  0.9095152289666316  0.3875694631287663
  0.8893509090325356  0.2277367705425241  0.5624182441694868
  0.2349110165848669  0.8409576292661148  0.3294005850552507
  0.0019422220473807  0.7476831810394312  0.5765007520646424
  0.1932730337762094  0.1365386375232723  0.3508213072484261
  0.1262445798175243  0.4527741369577472  0.6643254147808453
  0.7712800311074374  0.4354180653388137  0.5905632892017039
  0.4692192390928910  0.8088229881730744  0.2481053472950169
  0.6835766951271010  0.7325147289616384  0.4551176444729469
  0.4189769720045542  0.1043098498225765  0.4926705190453720
  0.0764760125358317  0.5515322914215710  0.1923968025036042
  0.6969126412551749  0.0724102370131335  0.6813631421746439
  0.3426799319794290  0.6590148204734536  0.8976943924933195
  0.1612858665836017  0.5939222094556263  0.3989324274808499
  0.3379479107863992  0.3285133626876720  0.5830326108870782
  0.9525805923863535  0.2799308621407468  0.8122964664839318
  0.0108560774760228  0.5251954826356722  0.9066295020122401
  0.6048353453184070  0.3860686432378443  0.3592548427207717
  0.4044157909701334  0.7001569431634331  0.4662982203902044
  0.5218642582701419  0.6336541412488739  0.1318837134950608
  0.2676343903578827  0.2378396678146357  0.7917121925519042
  0.4700000000000000  0.4600000000000000  0.5000000000000000
