POSCAR_HCP_Pri4atoms_100GPa             
   1.27835456151475     
     7.2290376558444240    0.0000000000000000    0.0000000000000000
     0.0000000000000000    7.2290376874345386    0.0000000000000000
     0.0000000000000000    0.0000000000000000    7.2290376375895455
   Fe    O
   64    16
Direct
  0.4405789554212448  0.1381810408565312  0.1286038079190244
  0.8029068442764693  0.3879782950259683  0.9144521031009777
  0.3504287551793557  0.6519666966997580  0.2484202518431255
  0.9042765620210214  0.4434426873836139  0.6234138307330110
  0.2702897277731295  0.6894491043184692  0.4777552846722792
  0.0887944535232333  0.3252329394835029  0.7071130830037139
  0.9735581242517646  0.7695034398364918  0.4278691736089055
  0.4766042637081890  0.0818407771583779  0.5811325995394595
  0.5625549455162446  0.6996139487720606  0.2384268375610177
  0.8843685699009015  0.0623728327029487  0.7786473434745167
  0.5974631454753635  0.6006219424208020  0.5588657106428450
  0.8890656695369435  0.6770861795812568  0.2170277535189025
  0.8870960856231843  0.8700084184275521  0.6280713407731270
  0.0469131594190026  0.3931052569032075  0.9364399017241568
  0.8383545692650809  0.6514161330406267  0.6361799746399942
  0.6243553618163828  0.7423121673045412  0.7749681213179406
  0.9548655353667072  0.4868060329770066  0.3576212168153253
  0.3935452217223895  0.7373070461371753  0.0296057335651841
  0.3806332273028561  0.5085072694428366  0.0431063034602075
  0.5065927782646017  0.2779089955687764  0.4429111502158418
  0.0204216059041309  0.9405120540648987  0.9795521944696221
  0.1771160459078688  0.8619627034191847  0.3616751398660501
  0.1187813873993607  0.1515500148283748  0.8709460158744151
  0.8863744664686249  0.1905923375307830  0.0453174424253947
  0.0055683418770411  0.5628657067932747  0.7569861694827326
  0.2530877642630928  0.9798024179014085  0.7420405360705145
  0.6820954120277494  0.8299374366827987  0.4905714865027611
  0.2715335714323466  0.2792502107904742  0.5401788552303725
  0.2559529028331430  0.0252655670100247  0.4673801087416982
  0.5144504078488842  0.9168937118342172  0.0971079293828522
  0.6886513609133378  0.7722795621114482  0.0076203912782823
  0.2505967536526625  0.9512263079664659  0.9851817195845148
  0.8941802808416563  0.1232443390714591  0.5436714719518080
  0.1222593141164861  0.0603361990888410  0.2210566021663971
  0.4251637842380091  0.2860171949297520  0.9672478102041460
  0.7634247107180936  0.6398589177301578  0.4057362171891453
  0.0236139714322074  0.6099072250391562  0.0463522350790039
  0.9530559363191170  0.9249200614719967  0.1982229879857447
  0.3894124323873812  0.8562557423381280  0.6267659773111851
  0.3466017704689008  0.6427833087619874  0.7052997583667389
  0.6596617721400945  0.4753194385989443  0.3521222366028696
  0.3148824008498075  0.1875689130225489  0.7835258927833701
  0.0384885046703560  0.2637339227350527  0.4647717244698244
  0.1810271508357520  0.7907340937030668  0.1022493699675739
  0.9401511274284075  0.0085134085801510  0.4073422431973255
  0.8228865117666725  0.2377166053425064  0.7326216262937850
  0.1637072301650739  0.4152292789731152  0.3295240229666296
  0.2694391042218071  0.4342501621730809  0.7866350677057756
  0.1620538300006492  0.4412149567747393  0.1287674000094256
  0.7488996635600035  0.1188252976522838  0.2458903851841055
  0.6781306634598994  0.0927736051373384  0.5422218503179896
  0.5401027402944177  0.0204064633334436  0.3314687587612267
  0.4194369408171842  0.3738127706959022  0.2291070904012983
  0.0973549993734931  0.8119229785556938  0.6105125216744579
  0.4742712327121674  0.0480634361962644  0.8601146880924577
  0.0997579147219945  0.0928304763310803  0.6334122082183731
  0.8109978145667542  0.4403700159641761  0.1206449502481775
  0.5650694898955693  0.2541297969105156  0.7614098377203775
  0.4629716135155151  0.8397883485284804  0.4353529888524441
  0.1202459856320185  0.5277018251841641  0.5633413790309817
  0.8080351638119259  0.2891611893423088  0.4116873866110217
  0.7261150353049519  0.8515181499677207  0.2644147377900620
  0.5898245502358093  0.4950239114181886  0.0990185348000130
  0.2967486740141589  0.1806999106763325  0.2955705208502133
  0.6226987648633601  0.5009865770941918  0.8762374659527838
  0.4013893300272905  0.4690744176864907  0.4545143166061759
  0.1187130070211664  0.6417381445802885  0.2882179473034043
  0.1940160243640433  0.1835249565204297  0.0593305732814410
  0.4353457263875994  0.8101445279900512  0.8271119175407106
  0.8131630635354885  0.9892321191694009  0.0359156999418940
  0.0324981276385991  0.8031468772242191  0.8048701920033561
  0.6733227553238695  0.3006664597864076  0.2149837946980094
  0.6931472530863101  0.9942668694645317  0.7723461615189621
  0.4585841272454716  0.4073174638703252  0.6440690065584090
  0.2200706532762835  0.6302256147410763  0.8753624402392336
  0.6759679122940484  0.3963464699200236  0.5849968453141523
  0.3220388284619188  0.9646245521092659  0.2103034110758699
  0.0032170281542969  0.2875376957295676  0.1875826612191688
  0.6389771609890009  0.1483687768610554  0.9756412338165595
  0.7910014181979552  0.6480289476240272  0.8872485817338415
 
