 VASP POSCAR/CONTCAR file created by 'ta
   9.80363742053321     
     1.0000000000000000    0.0000000000000000    0.0000000000000000
     0.0000000000000000    1.0000000043698918    0.0000000000000000
     0.0000000000000000    0.0000000000000000    0.9999999974747836
   Fe   O 
   64   18
Direct
  0.4354351776695689  0.7811731512500683  0.9156908100572799
  0.0770958898005860  0.4838193928540196  0.4105650100963328
  0.7870371498974285  0.6945275578070127  0.8501119724461836
  0.3864304696757657  0.0465961691938525  0.0374637854571327
  0.8720138150896083  0.4793046485917755  0.3157774529955692
  0.7958578817651542  0.0983214389752105  0.2954438593284535
  0.6612562976027974  0.7823742581649475  0.9963801215364129
  0.7887864869821788  0.7119470689804235  0.1921113711131023
  0.7878414863963216  0.1601953319707550  0.6577064020270985
  0.6676663452612632  0.4112680974490453  0.4206086151633292
  0.4227290218642240  0.1049599206657543  0.5582874758780418
  0.8503841019324285  0.5318683052285379  0.0714546072605127
  0.8304272650602808  0.9219062872885369  0.1045292708082608
  0.1877172258680823  0.5076189001570940  0.2512664240202476
  0.2253149741774288  0.6181056129263615  0.5368406463100488
  0.4858297945715255  0.6630893256907631  0.5025710190293676
  0.7898253850039236  0.2684640698148833  0.4773373923876066
  0.9726812398826176  0.2738011545386568  0.3969810457014343
  0.2226050206362593  0.6630387198014492  0.0274224813384668
  0.2963436859542956  0.5406513975042027  0.8472916709830478
  0.8643034279959955  0.4088386158793208  0.8273977313169610
  0.5849286727189140  0.8965254648988247  0.6090674834069477
  0.4569585480799175  0.3051812943172654  0.0830377069980172
  0.4412701729451748  0.1889843443588909  0.2686239714859912
  0.0535582943955745  0.8298430626662280  0.5032737865536764
  0.7586590579019457  0.0108232396556410  0.4662194280486834
  0.5920133583266880  0.2383385834575270  0.9139377843268897
  0.6061323550485972  0.6468786231718943  0.3307515458181428
  0.6763853811953083  0.4033244179760178  0.6984363387855093
  0.5493578373373823  0.5075535088740794  0.1856660337777561
  0.8915834756219461  0.8752454402159692  0.9032243535725164
  0.8099735551535462  0.8977225963058261  0.6596063678523353
  0.6250149459848149  0.2934819096931614  0.2368446224912596
  0.2666060559441770  0.3384031003251992  0.9757646183574873
  0.1953596562635285  0.0830024106389975  0.5788313760978768
  0.4853350352453449  0.3021256195742030  0.4867161901800031
  0.0577716368679469  0.6840857459556277  0.2074467665934272
  0.4097250849166982  0.9670888293134076  0.2696176098747647
  0.0629858548079859  0.1956493246268903  0.7058771821831716
  0.2415572417503683  0.1155738585248903  0.1467096376757451
  0.0035797874206938  0.0010815692514340  0.7926497391060112
  0.3079786249194347  0.8818909531232797  0.4338003387862792
  0.2435222545998303  0.2341979342152043  0.3773093327193717
  0.2645370726767646  0.2447504008353435  0.7447025756135418
  0.9128868844803841  0.3646079535691585  0.6139811124909003
  0.0759453726943208  0.4763579021119289  0.1007930678591856
  0.3324258491784098  0.0171480049031219  0.7977562886137683
  0.9188888990650544  0.8923357188138029  0.3226370574022110
  0.3779651866216534  0.5053369931999049  0.0540288968516392
  0.4926934181939666  0.3117803206822174  0.7664433855140584
  0.5915801399336100  0.0488565699512073  0.1129503082138911
  0.0409334252579199  0.7659461666920049  0.7714036698791115
  0.9100640927652530  0.2002043480763791  0.9142349375746437
  0.7309713429772087  0.0692590393277668  0.9228348004388326
  0.3424150850834114  0.6975073007422371  0.3451231222862454
  0.9109693858705563  0.6668061376145912  0.6161353005885704
  0.5840931958990313  0.8385353491572779  0.8095352154237094
  0.2182957101726573  0.8476043785577979  0.9496275668498899
  0.5932423676645893  0.1202703490544446  0.4212455355012243
  0.4586212690689984  0.7099155711307727  0.1322853966583403
  0.6772076873836989  0.6953315527491537  0.6296633163499363
  0.8415797929880662  0.3269000155721963  0.1480948441957720
  0.1342236398203955  0.1480234314035229  0.9304198189517665
  0.7365566733217135  0.7618305696930919  0.4389799985384280
  0.5989421624579107  0.8757758234111289  0.2311688800276600
  0.0597432591831503  0.8697079861198711  0.0891732169256840
  0.0785036370243010  0.4986453920112427  0.6646455837417347
  0.9769337483854529  0.0656578843921392  0.5551056435116762
  0.1075462588430857  0.2847479787237983  0.2047652128606737
  0.2283485117930860  0.3733285171975826  0.5895710939358842
  0.5715348004896139  0.5727646802123670  0.8336389379016634
  0.3748710666573979  0.4470460985829747  0.4048933950944261
  0.6519786565929252  0.4800657812259234  0.9950785686132387
  0.9617542616267513  0.0779776636623093  0.1158978581994661
  0.1546685918826656  0.0521676353271683  0.3499978161382714
  0.3553848642428843  0.8243097320596259  0.6400723232608067
  0.2315212758078224  0.8545677851042421  0.2101233118261610
  0.4821046954346366  0.5258386276166209  0.6394580979634794
  0.0919671106120321  0.3724945047223009  0.8670720366402395
  0.5728173828934150  0.0754006654289143  0.6951609133817848
  0.0035888613136273  0.5971627441618752  0.9193128519466086
  0.1997394339365377  0.7408880725467445  0.6789177909978291
