 VASP POSCAR/CONTCAR file created by 'ta
9.844829658198067
     1.0000000000000000    0.0000000000000000    0.0000000000000000
     0.0000000000000000    1.0000000043698918    0.0000000000000000
     0.0000000000000000    0.0000000000000000    0.9999999974747836
   Fe   O 
    80     4
Direct
  0.4610983101565208  0.7658604336620412  0.6876490613843015
  0.0639647651612456  0.4493482690141428  0.3370493776809973
  0.8191943878973835  0.6198712389905380  0.9476677060395162
  0.4287171947829725  0.0791633241662369  0.0161469487590371
  0.8685674674295858  0.5778972160667190  0.2183051851371756
  0.7841114857010902  0.1959196203828127  0.1659665227296543
  0.6375422605309071  0.7863753681924631  0.0422779653593570
  0.8031688604837364  0.7886779496166328  0.2492262140847373
  0.8062800397260569  0.1327405326891176  0.7144596469916822
  0.8161374070721386  0.4394497455524968  0.4018662794853672
  0.3699358502189815  0.1717795341718923  0.6119478862118810
  0.6745477915804423  0.5748139858383575  0.2106801427531970
  0.8022608484317358  0.9442498085541297  0.0787661495149503
  0.2311288563296010  0.6505875022437378  0.1330577824924889
  0.2987432441896226  0.6708117283101365  0.4897788334813396
  0.5158827738341561  0.6890653038049931  0.5107076658109903
  0.8104610908530167  0.2250796945764366  0.4654876086251676
  0.0516858388411075  0.1964968268772050  0.4172964767039869
  0.1937565410892219  0.6433226042541511  0.9082486916683060
  0.3883132255268185  0.5394598154692378  0.8802195808586629
  0.7486701363763122  0.4076211068553075  0.7999738843659302
  0.5102950359491807  0.9804320798392994  0.5482739383511944
  0.3961030372779439  0.3265370496540940  0.1703267768099247
  0.4420573892998452  0.1704005625744654  0.3164401765420037
  0.0738006502777128  0.8364679539132756  0.4771227517655554
  0.6903714081697124  0.9178649093691050  0.6547955471622147
  0.6155346890603107  0.1775495818659541  0.9628784512500310
  0.5767866521641553  0.5267306411077693  0.4102032928646733
  0.6967687963643080  0.3204298504870627  0.5581003724549281
  0.4378900127348004  0.5440340396677050  0.1013627142874393
  0.9501312330910070  0.8113677615061965  0.9954276187254112
  0.8541316526511099  0.0102127858090718  0.8667358606961980
  0.6395624759023008  0.3285431960258694  0.2713945820199965
  0.3703723204397629  0.2964570953508193  0.9013994163595256
  0.1812837366978784  0.0370366064850118  0.5835481166943544
  0.4893335105920966  0.3297052496397428  0.4872265481477134
  0.0402908549691939  0.7064862796009488  0.2807533582114827
  0.4828650519624424  0.9549394299101230  0.3048757220126390
  0.9524400702521709  0.1974532099438057  0.5984935613926303
  0.3128792100359369  0.0611224236113378  0.1843877050849391
  0.0902461875444158  0.0070712511482771  0.8122916632544314
  0.3265381749419520  0.8759713013914041  0.4735109348361060
  0.1773332158886878  0.2945143883091596  0.1981978482791481
  0.1361040086709025  0.2913132335601811  0.6916949341687225
  0.9565235354984070  0.4238883144127574  0.6584556629676942
  0.0277748155560871  0.5947470837229357  0.0710295454146615
  0.3389371555257927  0.0820352250195781  0.7784945858882489
  0.8821566952074280  0.9617581510135350  0.3020681896215023
  0.1799620480554869  0.4457463734695894  0.0124482970525987
  0.5308282202008843  0.3616902214075012  0.7819581186872848
  0.6406754517152531  0.9971115702131255  0.1982496780080678
  0.9997958189368653  0.7533267075113945  0.8201446859007999
  0.9121940826299766  0.1926990027034555  0.9738468827920097
  0.6089218884530710  0.9372614854060713  0.8736864324866485
  0.4536478717827758  0.7343803050734382  0.2794394965366589
  0.9514400633589495  0.6500005612678836  0.5635044127319307
  0.7716910672746446  0.7476569189145248  0.7582638678222697
  0.3534561972894249  0.8913053028150200  0.8628236817422497
  0.6962352090589391  0.0448734212827755  0.4627832732827922
  0.3550736598177102  0.7923379033499588  0.0371897241376805
  0.6762613873556251  0.5466508014294392  0.6771561456080534
  0.7669069000386060  0.4123980076975423  0.0444971125620377
  0.1949619639042256  0.2015412945135107  0.9513383619748083
  0.7549694583834521  0.6681919205316583  0.4945185559842424
  0.6458928116204814  0.8253400692540220  0.3647408816172586
  0.1565646109580330  0.8822139684399669  0.1131310877065120
  0.1851281190243492  0.5042001079995267  0.6183888395719500
  0.9318788644247343  0.9070913492281982  0.6423173533179399
  0.9896087284402568  0.3331266020723438  0.1404271441478556
  0.2427553682181711  0.3162551358709960  0.4356947105466624
  0.6148601557320231  0.6721561224410072  0.8830288542731592
  0.2942065826087691  0.4675459177794621  0.2925350074385478
  0.5538573106629294  0.4332187488876421  0.9729684250456041
  0.0323396178884049  0.1017497401123353  0.1882627453310785
  0.1417646296214015  0.0064809533445739  0.3367746322066748
  0.1430868454721742  0.7818675560709073  0.7222749295140029
  0.2991063809449267  0.8463265332655435  0.2616286135520428
  0.3544429420400241  0.4081239188121452  0.6726766155183723
  0.9961885754382893  0.3277789309270042  0.8687699320094290
  0.0151943469203852  0.5462437093777560  0.8427431836202518
  0.5691002374028652  0.1324338984912413  0.7504327037589268
  0.1566328216176198  0.6882456660314143  0.5786243791758435
  0.8600000000000000  0.7800000000000000  0.1330000000000000
  0.3000000000000000  0.3000000000000000  0.2100000000000000



