 VASP POSCAR/CONTCAR file created by 'ta
8.653590176473706
     1.0000000000000000    0.0000000000000000    0.0000000000000000
     0.0000000000000000    0.9999999999999988    0.0000000000000000
     0.0000000000000000    0.0000000000000000    0.9999999999999994
   Mg   Si   O    Fe
   16   16   50   2
Direct
  0.1583127787557859  0.3710956007497190  0.8722627060281756
  0.3326225535022475  0.4361944691260610  0.1766337452352486
  0.6324469638623358  0.7412478599238360  0.2267015443123603
  0.6709258535350309  0.1075286262280504  0.8843022182172255
  0.4448798767839335  0.7572607332608882  0.6907423380498435
  0.5601940960094013  0.1597143116897846  0.1879040501541678
  0.8152548392805249  0.0555633197238700  0.6416670963965824
  0.6217236091790720  0.4545103881331577  0.5039277363801334
  0.3163360736528061  0.1827390148314101  0.2891274669958812
  0.8672768172305025  0.8316478284945905  0.0426860842152851
  0.0730396916056098  0.1567515514862321  0.4593957404285618
  0.8103577561047801  0.6933192172325965  0.4946438090645259
  0.6369228877724654  0.9976554518244218  0.4417374735589791
  0.9673476126774232  0.6298415432252236  0.2040963832457005
  0.5225420857058778  0.9704116013309868  0.7569232210248484
  0.1084526542592609  0.8821540996603358  0.6519473866071320
  0.4419355649123302  0.1883575292138447  0.5001992482152966
  0.2716460868777326  0.8142922230547577  0.8810912049801016
  0.7833865799390314  0.8163624832460391  0.7916908048179989
  0.9213554962403050  0.4148850546127266  0.6403353295011845
  0.2492300891715594  0.9431914337209988  0.4048577668254409
  0.3443382031322750  0.0168567537904282  0.0110257693559996
  0.8283001339631116  0.3612267522284576  0.2745852277426977
  0.3115205012599799  0.1776622322474037  0.6666636072053176
  0.4117305078264508  0.5378431044234256  0.9338313525527140
  0.0889490912266589  0.2810138118283791  0.1352723739229860
  0.6354256724166788  0.4720108825889661  0.1525740653101113
  0.8483984456472116  0.9201754926071350  0.3058066436420306
  0.3738768469002126  0.6927172097119405  0.2165906321377626
  0.3243279867961412  0.5996306760458101  0.4852209597976897
  0.7092646090479070  0.3852903821881291  0.7880197372543531
  0.1085750914403009  0.6257781239755248  0.0204173650197755
  0.4613395949970865  0.6113247498221803  0.5978898050055274
  0.2070246522099680  0.7108621031350725  0.4986487183500563
  0.7141907581635342  0.2906949799234367  0.9271453017201065
  0.4126868369316387  0.8534373241915614  0.8569063733465523
  0.1154380461588178  0.9839679412257692  0.5048505199272881
  0.2570146264201246  0.0463939761490603  0.7715456718591328
  0.8091806374945397  0.7528824248944749  0.2596173306226923
  0.6301963242473495  0.1119871746226742  0.6720756945028917
  0.0322506718590389  0.5119673465004629  0.9390011975498874
  0.5435693027689836  0.4273852095899003  0.8237663292591610
  0.9524466181516377  0.2789350285412739  0.3399294578911471
  0.9898173255616765  0.7204946600374394  0.0629514460484618
  0.8510529209811786  0.9436499977042891  0.4795828289091015
  0.6476678302210321  0.6835438842820246  0.4235662881894777
  0.0619374526869595  0.1973495965659502  0.0044505044630535
  0.5277931711743400  0.5728908994078381  0.0829077214462909
  0.2999688376413231  0.4112201375569196  0.9718630992510281
  0.7328768375258656  0.9404960507463159  0.8927685243160797
  0.2735293197437824  0.3383330684228891  0.6959632553870617
  0.6375799545835515  0.4729686351531003  0.3156322463274616
  0.2041988014842966  0.9232129337599012  0.9874053546283247
  0.5732473673237982  0.2600349276714757  0.5094101620945078
  0.9818137119859865  0.5778121290833206  0.3808211811924512
  0.2466101756750015  0.4668533547369312  0.4383393618651010
  0.4029202663555892  0.0552481009956423  0.3870374988396568
  0.2689718221075993  0.6260810006743024  0.9136267329765719
  0.4795550665770688  0.0883245401217266  0.9848228097106796
  0.7834612947009235  0.4504494535527389  0.5634485409155863
  0.9109923165865507  0.3392133397171020  0.1152385832493450
  0.7053946776278844  0.0026302369759277  0.2612843931575338
  0.1668710683144902  0.0713012566585256  0.3113631483167176
  0.2622835196230385  0.6919667919606157  0.0953543570235795
  0.1963728961864799  0.3198475997592601  0.2311192121282163
  0.8751520968155756  0.3665098061674056  0.7839566375969804
  0.2890827463467452  0.1349944059202841  0.1038479394019205
  0.4687042472332397  0.7966373855074049  0.1485014785905661
  0.0679099978009902  0.4793743077804439  0.6389172365002186
  0.3671973115805957  0.5704027691968985  0.3306011721164073
  0.5786979913437423  0.3230453573061983  0.1226170146410473
  0.1786715203242016  0.7602395301474809  0.7725615732578905
  0.7966033476714832  0.6990275557493513  0.9231937878551961
  0.9244617797687479  0.8710306174620003  0.7127869885955280
  0.3570223192322685  0.8922966000684110  0.5918680188285077
  0.9501055640104290  0.9615358993840971  0.2016912870947983
  0.6198671839431086  0.8123945988229324  0.7428055721264345
  0.2919275113510591  0.8162976272008268  0.3044043946969511
  0.9771800256825924  0.2471241640430689  0.6338914240054078
  0.3960724191498741  0.3292834436041477  0.4396975795889983
  0.7721193530921836  0.5134752831437894  0.1261792087077834
  0.3000000000000000  0.2200000000000000  0.0100000000000000 
  0.0710016090396074  0.4293903288904066  0.4844963538079166
  0.5500000000000000  0.0000000000000000  0.0000000000000000 
