 VASP POSCAR/CONTCAR file created by 'ta
9.476336801654204
     1.0000000000000000    0.0000000000000000    0.0000000000000000
     0.0000000000000000    1.0000000043698918    0.0000000000000000
     0.0000000000000000    0.0000000000000000    0.9999999974747840
   Fe  O   Pb
   72  8   1
Direct
  0.2510664754510993  0.9757068257765108  0.8821048298564423
  0.8554762028346423  0.7658707767171801  0.3611553432280377
  0.3370594923372076  0.1371644066052824  0.4203197886033682
  0.0492554875542116  0.2996225310596518  0.9118508538305092
  0.5873013187587585  0.5213971839756173  0.1515815894666903
  0.0282365573927456  0.8024580581201062  0.5208125241048438
  0.1565829078601208  0.5793780036059920  0.8543539866434616
  0.9233768324565923  0.9225031198481173  0.1586649208673449
  0.4239000823438465  0.9576922231333270  0.7381009658861580
  0.7094998527069967  0.2553021636570424  0.6773133173016541
  0.8170646250051528  0.5424327777803351  0.2446003146403610
  0.1566629112305250  0.4529572800900282  0.2067623837592307
  0.3738612679437644  0.3107497761846185  0.1724595922673942
  0.6301981480806931  0.6030800000556934  0.3566229100669097
  0.8499053546908120  0.8498019023528708  0.5853345843238910
  0.5527295205311524  0.4714629606544047  0.5574372289659801
  0.9601250374587189  0.6829812258699001  0.1794958487831124
  0.6325361665959186  0.8264550325653978  0.9834730499846608
  0.3039513115132162  0.8210490867553989  0.2761469689203262
  0.4616485187831720  0.8682632426567001  0.8883353449976712
  0.1777071260968333  0.2082210880784318  0.8015318194834802
  0.6229090761227172  0.0083556349732014  0.1223359269475713
  0.4862993844040724  0.2740630655203653  0.6999986442849168
  0.0787952901093000  0.5112888430048649  0.4270866622595283
  0.2646415065595447  0.3628794210850000  0.9644676017182886
  0.6305799778403774  0.1191829238183227  0.7813135270053724
  0.9075129567513249  0.1110366707663653  0.1398773968958198
  0.8936245572098205  0.6040524993791638  0.6009257846185216
  0.1967399235040467  0.6810677228226987  0.4685058646992922
  0.6506475059010840  0.3499726996684717  0.2185627945393381
  0.6529842794118693  0.2496667540145987  0.0388464301850718
  0.5140349063302853  0.7964794618565064  0.4571281888761358
  0.6596186766497079  0.9667349954330754  0.4123883876688188
  0.3371196386637236  0.9369430115353640  0.5300336617583348
  0.2993608809863711  0.8010764189670584  0.0496995408937329
  0.1391513212774277  0.6651764434599239  0.2706076736401689
  0.4091535097926545  0.0336279757096085  0.1017281824422014
  0.7307200897462930  0.6832593945764736  0.7310609180278876
  0.2636038028406660  0.7662878215966933  0.7405018916865667
  0.1037148903664579  0.4170067182810925  0.7490288099597838
  0.4669480631388847  0.3712513518654844  0.9160139500769314
  0.5030436924813961  0.6827251210514685  0.7436209121143280
  0.5047915201648764  0.7893430232364561  0.1657042432524051
  0.7900687286672001  0.1291523873699506  0.5167206784401971
  0.1419845824178356  0.0328806089690385  0.2031327882937044
  0.9634472698496946  0.5411189309147393  0.0421805457971808
  0.0656319615401338  0.0001186852430676  0.9516752899704287
  0.8107214252670110  0.3717908918655051  0.0750643055488166
  0.3750098913595683  0.5242533193172154  0.4679492011901154
  0.8944690123393215  0.8695869666884619  0.9661783897160299
  0.5049348548919145  0.0385374867783580  0.2878644858568045
  0.7124203486823817  0.7911746680656245  0.1928885584647680
  0.7382459331444600  0.1575454572207652  0.2714720628192428
  0.9304060610562586  0.3452138566683022  0.6250569491110811
  0.9220315719445359  0.5862238953518522  0.8796602000725985
  0.0550544094186409  0.7901486089129253  0.8930013008447205
  0.6955536453586723  0.6247664629535219  0.9671886397452940
  0.7717810871339259  0.9366934117855377  0.8030755973296824
  0.2930104456985922  0.1218469016650825  0.6329670896769550
  0.5810099531255568  0.1814829477454117  0.4148531867741342
  0.5168659808851035  0.0556621198596668  0.5872624289504017
  0.1268999658512519  0.0998124117707877  0.4301699818331527
  0.1838026233183504  0.5967244818349620  0.0805901063498544
  0.7397121787925184  0.4138121914080885  0.4758099423382383
  0.2043591373846897  0.2314695166405571  0.2807124711538830
  0.4296608763090672  0.1553677214488177  0.9139728970877442
  0.1213316104181897  0.8772429503627787  0.3457620316065916
  0.1267718059466755  0.8531324850576453  0.1106358096776662
  0.9324599308240974  0.1764897770827552  0.7557301110105529
  0.0267626379569383  0.0000815964163714  0.6421860850226139
  0.4278165760063660  0.6487415033703298  0.9710870371791214
  0.2297842241710200  0.3943022126884836  0.5398718161204866
  0.0829417292619832  0.6488839531249136  0.6477777239786673
  0.4543680750149414  0.3673696335072922  0.3709646533966253
  0.6151231492649568  0.8714340971892492  0.6372121052125236
  0.4140362515644876  0.5575305360751264  0.2230549452564419
  0.7564777945887304  0.4445763248612626  0.7590467088265331
  0.3630858321429467  0.5400168502018220  0.7762191934358679
  0.0693102036027434  0.2596890670766657  0.1355400473848022
  0.8242327959092571  0.1473007082272639  0.9316648695644720
  0.8562117787988596  0.2527633636412997  0.3052753990109795
