 VASP POSCAR/CONTCAR file created by 'ta
8.785788605998876
     1.0000000000000000    0.0000000000000000    0.0000000000000000
     0.0000000000000000    1.0000000043698918    0.0000000000000000
     0.0000000000000000    0.0000000000000000    0.9999999974747836
   Fe   O 
   55   25
Direct
  0.0819016592402104  0.9721728865855795  0.5360509237811677
  0.5311319776853105  0.9516072953955311  0.0883205495411027
  0.7432219835782777  0.8553765105228678  0.7499344367490283
  0.4404517021387762  0.8177535242901764  0.7984632086718653
  0.1030985305507511  0.3929026862527223  0.9575595932261106
  0.7986415728530354  0.5526830385436922  0.2684620046184628
  0.8604298855439823  0.1497519952888394  0.8543308736268705
  0.4993862169119856  0.1822667200270565  0.0405280484066580
  0.3074436436939614  0.0467102040626058  0.9330942351786172
  0.6659573313670338  0.6789610939622280  0.4494329835043156
  0.7682701489857694  0.8571439252791848  0.9884507220789155
  0.8028824866797314  0.6084290700509620  0.0236468046783143
  0.2891008410613836  0.5787483335717597  0.2669284918196287
  0.8724991797215086  0.8942880882054122  0.2014626160465846
  0.5472913264649812  0.0419372662282546  0.8005582521629292
  0.6832859505646612  0.1293817420579627  0.3801505266470253
  0.1015234128746067  0.1493905762155830  0.8143737544028018
  0.9809161683360575  0.1341452983942124  0.0826699347363787
  0.0289949427148623  0.2404720227028801  0.2863859696165727
  0.0554550939766715  0.6782935903621756  0.5998551282694150
  0.9567386488569505  0.9620029386803471  0.7339673321218738
  0.9554970359806617  0.7530358700793297  0.8695823326208185
  0.5402291876123203  0.7247289715874645  0.9403730405593388
  0.2149936101245989  0.9064034259098915  0.7752306885929708
  0.5566764351380545  0.4024155804800809  0.6880189433676596
  0.8543809809369728  0.3540840522126160  0.0000365886682492
  0.6477845046885686  0.4013226217190690  0.1070260077675407
  0.6574050137047233  0.3400329741478703  0.9003091254251595
  0.8081578637070451  0.1964561965321406  0.2201069711640416
  0.7865817605613022  0.6200550968294682  0.6060975181925607
  0.3333565221607113  0.3554312767634051  0.0643664574958279
  0.9101998130497506  0.7048472207049257  0.3642902493819515
  0.9508174140557114  0.4674169126685295  0.4468312855871052
  0.3292988745562689  0.3664461754515714  0.3065850179514221
  0.9722169096725966  0.6759733100199594  0.1364266761662548
  0.6747284994886514  0.1797743216006775  0.7071961817014660
  0.2037095624286508  0.1325823774061253  0.1647298561186689
  0.1910286841067651  0.5932983296036357  0.0366318753865043
  0.4445852520668185  0.2508439871295966  0.7677987112723224
  0.7431417270479768  0.1165432763649728  0.0309733996911976
  0.4513995238298064  0.1669084951597024  0.2809873798083358
  0.4465424303457600  0.4819607565216741  0.9162684591964857
  0.8920744903135218  0.5351436821773068  0.8055540346074473
  0.2660320494542331  0.8229445580146619  0.0241278006115735
  0.7035916301827633  0.4017568396352735  0.4801349925950161
  0.3015139077421187  0.1510323322018209  0.6324125830954600
  0.4614238600300508  0.6161893500616159  0.6348979742634649
  0.3090714551005784  0.9268044048618571  0.2447042198869199
  0.2871319947586342  0.5102972393094025  0.5001572300166490
  0.0342032271643117  0.9541515654504655  0.9433778876610790
  0.8762837595365432  0.1037154065056987  0.4104330007586950
  0.0265418453567230  0.9845907122548065  0.2399241745276628
  0.1580743414997289  0.3298604206652606  0.4621752450291418
  0.4578575749769532  0.9840826190948782  0.4315683443686315
  0.6876605938673254  0.7412102768963710  0.1885490730020767
  0.6436523222687985  0.5947747260789419  0.7916184930194821
  0.5485312067359190  0.5696698244234197  0.2481272513190840
  0.3023594291335406  0.8205926638874965  0.5568477782921250
  0.5743744909960060  0.3501809393650494  0.3009455982922514
  0.7043534039878865  0.9001537554458084  0.3383275183079131
  0.0104343897933495  0.1812875585071671  0.5640871009359769
  0.1567523517913256  0.8299928686979637  0.3610589960226646
  0.8860750094195363  0.8470810068203692  0.5368971200574639
  0.2631809892297957  0.1316484592248791  0.4186429610568804
  0.1220131436341805  0.4312352005130541  0.6910437990170603
  0.8539331208824744  0.3757911656468945  0.6503057452705665
  0.4570085585198440  0.7808962089914124  0.2814118328744661
  0.5542640148188216  0.8893467505857384  0.5746308162230594
  0.5232798403736544  0.1575860304451411  0.5719514702632782
  0.0849698578947838  0.4580615894443015  0.2215847644990912
  0.7281196400875610  0.9985573941505046  0.5547804679510462
  0.2150275643104774  0.6404919852968719  0.7416048962251675
  0.1312051452774997  0.5914594136113625  0.3835501235995129
  0.2680153428057697  0.3160502165270420  0.6070802514199461
  0.9868174289935396  0.2898968836201475  0.8247959031942539
  0.0736769347912699  0.6048217854351804  0.8830856102261857
  0.5132571961009069  0.4498714282292040  0.4537834385771030
  0.3997263945688437  0.6738535999197772  0.4470013535733175
  0.4446107091306604  0.6168838724029796  0.0633026883951192
  0.2815912222271713  0.2362923273207583  0.8936946543405506
