 VASP POSCAR/CONTCAR file created by 'ta
   8.93986457320201     
     1.2599210498948750    0.0000000000000000    0.0000000000000000
     0.0000000000000000    1.2599210498948721    0.0000000000000000
     0.0000000000000000    0.0000000000000000    1.2599210498948721
   Mg   Si   O    Fe
    32    32    98     2
Direct
  0.0021161418761344  0.1689340734624812  0.7322112603871892
  0.4882081656127087  0.2597625104204194  0.7818731066184446
  0.0613855722166855  0.1365446459314635  0.4198407793890404
  0.5458697260880213  0.0946048316256380  0.4091846595877571
  0.5039370381757836  0.3220176916380322  0.1828851807032660
  0.0128068043263577  0.2352202474532976  0.2163238521957735
  0.5279256135690272  0.6049673184876754  0.8747882635000337
  0.9347035939494673  0.4317568947090097  0.8228488984484847
  0.4197345532564085  0.0327704925986664  0.2126568328394762
  0.9216716232251796  0.9713824409021998  0.1774524275527848
  0.0589946358612212  0.0908929757063793  0.9874163333898947
  0.6841299556203689  0.2473309158291701  0.2068076077533975
  0.1864010745882674  0.3219200962914602  0.7962338050085992
  0.7108665058603588  0.3090141834633739  0.8975452156914402
  0.0634579473571428  0.3724802938587251  0.5097190873128675
  0.6778892546060321  0.5243631253717377  0.7592002609892475
  0.9529438785080894  0.3429321771811272  0.0053807277385690
  0.5394198890979890  0.5716121135950820  0.1370855576645862
  0.2266410820206237  0.4741863737519703  0.0257385770117029
  0.7939321306801698  0.4251713129615761  0.2827920336581599
  0.5109092004611532  0.8176393371717373  0.1833639927723659
  0.7259341814901075  0.9283005857693442  0.9827936088193825
  0.0696577725376136  0.8850497068160168  0.5314117100898026
  0.2835748080661523  0.1748158290377418  0.4860784000262864
  0.3444600859844240  0.6699295302694593  0.9820953501163959
  0.7315505337085941  0.7262313053820787  0.9222809295962375
  0.1871769024855173  0.9926981380198042  0.2163850194876856
  0.6566157831841258  0.9957101493942311  0.2013985811009854
  0.0453796162833107  0.6013577920344683  0.9353785415542353
  0.4523825615803166  0.4817277119322365  0.6545095686716371
  0.3288994412185315  0.7824774610375003  0.6940979060989735
  0.9669208409358595  0.7638430434472966  0.7736601199635053
  0.5143202135214496  0.3530838524546252  0.4529253600627650
  0.8452061037271618  0.3475087436498099  0.6383444861443690
  0.1982791392828286  0.6560268748955850  0.1403588471010423
  0.7192247093051913  0.6865396143837378  0.2838856388206580
  0.3509889509156300  0.9653012255284312  0.5406595072900900
  0.8191003829033324  0.9050721367067009  0.4263384183154477
  0.4409960806169306  0.6258957685937737  0.3873020475563798
  0.8934476676963029  0.6393410418472212  0.5892707371600892
  0.1963903458058354  0.6126536031454751  0.4758651969277913
  0.6137385094225809  0.7006562986232222  0.6125657439660355
  0.5695392460107788  0.8546733088315270  0.4411916532667863
  0.0082290168231799  0.5013136851575327  0.3109219401278843
  0.2402474540691010  0.8069154544200494  0.3908336063860765
  0.9932112997226492  0.7031555278316153  0.3582465257797129
  0.3085989959445865  0.2380616371701178  0.2869665040618860
  0.7809203896950908  0.1875600104731585  0.4349929173647961
  0.1758660833558507  0.5636698876427234  0.7233068516185348
  0.8051396558762424  0.5163879163035143  0.0225714081009893
  0.1256125914868770  0.9588924547757671  0.7580948529829670
  0.4967403137476874  0.0425743650277363  0.7295919892952041
  0.2898462610781289  0.3785774908431181  0.6099217845795619
  0.7326436415459923  0.1484027236799325  0.6900921716662612
  0.2646816312765545  0.4503153711474231  0.2930737485280835
  0.6361824103785706  0.5433558405177409  0.4577287056858181
  0.4607973117151651  0.8292949463226424  0.9086042090491108
  0.9189439429019119  0.7256494658346490  0.0682572346826538
  0.2483464882781712  0.2210169864028080  0.0631329597999634
  0.7887273620498715  0.1494574307953649  0.9929345074045876
  0.1139174507521874  0.8686648474768524  0.9667587863353224
  0.5333447890449891  0.0942864783698467  0.0124773838620279
  0.3144017878930399  0.0346567566850514  0.8870885763541797
  0.7384938091218606  0.9155529008289744  0.6730473023255379
  0.0547115867081289  0.6439978208670716  0.0978232530453941
  0.5743466377861188  0.9276336565190176  0.0612814313585992
  0.0568715539175100  0.6208825033623500  0.6976232915277264
  0.6972805477364937  0.7829847282195591  0.6758869111362377
  0.3296595773862451  0.4450798187509433  0.7567892980607763
  0.8242306519518471  0.4047654953379318  0.9320942750153247
  0.3833424305379452  0.1323667106771859  0.7819419235693162
  0.6394036785499418  0.2324580161544765  0.7620177706784638
  0.2597526677296305  0.0636131314727858  0.0589990772074567
  0.8104549938574018  0.0733187754239538  0.1226996023972919
  0.9942583764455781  0.2802556948009617  0.4033525200786270
  0.4186885923408550  0.4691641833819490  0.5011163264842244
  0.1102394572587604  0.7217129986391339  0.4670491757001269
  0.6763345334692343  0.7534976784027844  0.4155741835347857
  0.4249900033037949  0.9157412422486846  0.7022352303219895
  0.8271280917991518  0.0300093427916498  0.7038598126600376
  0.0135080525467146  0.9732143114734766  0.6659276259978265
  0.5458499235625106  0.0708726690177686  0.5781984055732526
  0.0451433083212760  0.0674302845314881  0.2778252554886421
  0.7086996484004437  0.0767100500068063  0.3561986372374187
  0.5333552183662315  0.6353037625906844  0.7087113441005216
  0.8712410227154512  0.6196866152621053  0.9511836357896930
  0.0887577088084547  0.4201306803731252  0.0154009108510254
  0.4858282315848624  0.7315353163510959  0.0318481160886720
  0.4483064710896173  0.9958665892817976  0.9367843734257142
  0.0073424774637629  0.7743486021371135  0.9218070234726080
  0.3055333623151091  0.5943058999409035  0.3393234648126172
  0.7259579511687709  0.6266001853446013  0.5614345114803574
  0.0375720796603736  0.2178083053322502  0.0633861704434047
  0.6678427172054119  0.1019579691350769  0.9556387261812056
  0.5208936176882137  0.5042037605711167  0.2998842843984406
  0.9933608393303870  0.3562829731677292  0.6481167439173504
  0.4114965590632808  0.1760575958855154  0.3898361070939498
  0.8733774873676914  0.0819880233405802  0.4860531859297400
  0.0166276459754108  0.2829845952844320  0.8483962611150057
  0.5622327078431587  0.4179713707642510  0.7851829691114778
  0.2747900573802790  0.6196060913696813  0.6226380458814706
  0.8375318884577037  0.6074017269701403  0.7241465770949796
  0.2403720770116401  0.3009120066922130  0.4075053988947193
  0.6103518437582823  0.4247213892294380  0.5315137960726171
  0.6168299910546071  0.7071821850929226  0.2044677571684311
  0.0107987039808684  0.3905470807598639  0.1784758771446183
  0.1556069519870212  0.4424475419334092  0.6235795859024188
  0.7655713567737602  0.4350398057254365  0.7078037413215619
  0.3855064278981959  0.3559206989689245  0.3087208047457654
  0.8466807968184933  0.4428182597604730  0.4841099479542065
  0.1864928287081327  0.0936039885756846  0.8069385868788131
  0.6443443033746188  0.0021246408214473  0.7597375942763878
  0.9564937691512481  0.8143002820723382  0.1620075036697846
  0.5096343262080019  0.9358296141056255  0.3342265229353125
  0.2793918399410421  0.3126730577260821  0.9347042253527698
  0.7839857335167261  0.2667327493263486  0.0426241257823493
  0.1096430600023286  0.5052328976738395  0.4411618844493930
  0.5060210160697711  0.6743577205576382  0.5115379835736128
  0.9037969674112658  0.1241457385138862  0.9366652569402907
  0.5993580622181269  0.4324682537966670  0.0059912495434228
  0.4637379129203831  0.1979880076407746  0.9529468971000373
  0.0488184845357174  0.9698265250847770  0.8898108061622491
  0.2931886329868431  0.8002340365873640  0.5252535756196108
  0.9680448278609647  0.7523903041910985  0.5819605754993468
  0.2749252575332960  0.3895007255886646  0.1708902217295697
  0.6785105210476907  0.4270985082838641  0.1637460251032448
  0.2288937090377504  0.7769814222765778  0.0350319753187930
  0.5737522373912742  0.1661025727690453  0.1546393358561463
  0.3633256127231461  0.6065806510773437  0.1620132870904248
  0.8768481806314916  0.6584238031908535  0.2498162287671097
  0.4003485714096754  0.7390520885835347  0.8384615586968287
  0.7973368971182728  0.8194840783479205  0.0745031159907754
  0.3963329176130887  0.5035138671429374  0.9415332275461834
  0.8476291622963875  0.4832533957829068  0.1529143437640954
  0.2000597309128976  0.9503520377344827  0.4135695300869122
  0.7138380366424618  0.9335662693884987  0.5147406922046509
  0.3706090497649058  0.1917894396718653  0.1681266417758874
  0.8295097092210461  0.2289622144270413  0.3018250025677661
  0.1822017186712193  0.5398180538315320  0.8689035683940364
  0.6614286916354616  0.6039442372153980  0.9673152464562167
  0.1710010234711497  0.7822462278545140  0.2763173052520728
  0.9652717689128884  0.8564382002084715  0.4166854781060365
  0.2284085753905921  0.0005288306163462  0.6612128825479379
  0.8651988212098000  0.8768333078788043  0.5707191013510150
  0.1382217695708804  0.5504213178516236  0.2641184789749464
  0.7233210089520611  0.5368031063294065  0.3459601746614560
  0.4530789829995535  0.2889638175760370  0.5835601107991170
  0.8425558635603086  0.2320634531762983  0.7292814243446989
  0.6064745862117846  0.8425055383299074  0.8874350917337755
  0.1571501654793188  0.8280336262995027  0.7922643187378169
  0.3244349745991154  0.8857021244757702  0.2479493121537183
  0.7741188802505548  0.8669559362620162  0.2719897292288823
  0.2038449085388220  0.1833583522598544  0.2110055515874651
  0.5945487657024957  0.2518875477651472  0.3825475355282653
  0.2317308868973720  0.2562890956995194  0.6169622245131260
  0.7579199735845689  0.2714577138167976  0.5553062327421776
  0.0763280517902363  0.9554066493188739  0.0723860987918600
  0.4878755964712803  0.8424189579966989  0.5389532213253400
  0.2932077339529759  0.9103553854552432  0.8947798807595914
  0.8370226790140318  0.8335816595765282  0.8665804799619553
  0.4652124407405790  0.7486829319220171  0.3460620069428801
  0.8990327000513608  0.6288684010085462  0.4435741432683979
  0.4572597460093111  0.3647196637797528  0.9708314378335163
  0.8876096406893814  0.9722599729188716  0.8376429397712499
 
  0.75101499E-03  0.40188671E-02 -0.63850462E-02
 -0.19192412E-01  0.29113226E-02 -0.46776398E-02
 -0.34281588E-01 -0.94166148E-02 -0.57944034E-03
 -0.17874033E-01  0.70755085E-02  0.60448397E-02
  0.18575032E-01 -0.67217265E-02  0.14570604E-01
 -0.15123184E-01  0.26161654E-02 -0.57100404E-02
 -0.96566149E-03  0.12125662E-01  0.17136184E-01
 -0.57953046E-02  0.22009124E-02 -0.53279467E-03
 -0.44302796E-02 -0.61982136E-02 -0.23279969E-01
 -0.89742823E-02 -0.11174571E-01 -0.11037841E-01
 -0.25586772E-01 -0.56762738E-02 -0.31796076E-01
  0.20372109E-01 -0.11545938E-01 -0.13609039E-01
 -0.13904023E-01 -0.12164715E-01  0.17991408E-01
  0.19384346E-02  0.22799052E-01 -0.13298182E-01
  0.27987029E-02  0.39456429E-02  0.46029910E-02
  0.16147466E-01  0.18460198E-01 -0.20636414E-01
  0.92888174E-02 -0.17899361E-01 -0.12041692E-02
 -0.46072753E-02  0.12653690E-01  0.83193127E-02
  0.15113611E-01  0.82995377E-02  0.72827051E-03
 -0.89685400E-02  0.10958083E-01  0.92935882E-02
 -0.99851627E-03 -0.12033962E-01 -0.36019554E-02
  0.66930688E-02  0.19697871E-01 -0.12030982E-01
  0.10075023E-01 -0.23082631E-02  0.10948670E-02
  0.64940332E-03  0.23313482E-01  0.13323484E-01
  0.65014515E-02 -0.89742545E-03  0.36143728E-02
  0.16853794E-02  0.67291666E-02 -0.51264290E-02
 -0.75572189E-03  0.13297306E-01 -0.12072130E-01
  0.15856537E-02  0.39790454E-02 -0.83150962E-02
 -0.76880475E-02 -0.14787948E-01  0.17000225E-01
  0.18361842E-01 -0.54303128E-02 -0.94751850E-03
  0.11478922E-01  0.10721553E-01  0.20223590E-02
  0.19164508E-01 -0.12426695E-01 -0.21705595E-02
  0.45849013E-01  0.16968264E-02  0.60036152E-02
 -0.35478029E-02 -0.22055954E-01  0.13653354E-01
  0.21838705E-02 -0.19551301E-02  0.13410858E-01
  0.42734126E-02  0.62862779E-02  0.12882006E-01
  0.24503312E-01 -0.93853144E-02  0.31927808E-01
 -0.23696263E-01  0.21404098E-01  0.14189040E-01
  0.15060074E-01  0.10289056E-02  0.90691140E-02
 -0.49109157E-02  0.11453307E-01  0.61777972E-02
 -0.16370607E-01 -0.99838572E-02 -0.79381380E-02
 -0.19991615E-01 -0.34222700E-03 -0.13360297E-01
 -0.64922917E-02  0.20113070E-02  0.11541368E-01
  0.23160676E-02 -0.51387999E-02 -0.80699314E-02
 -0.77999613E-03  0.15903188E-01 -0.19401717E-01
  0.66162005E-02 -0.92028107E-02  0.16361487E-01
  0.14759234E-01  0.42917932E-02 -0.74505115E-02
 -0.64143816E-02  0.11960461E-01  0.18603271E-01
  0.91883688E-02  0.12223805E-01 -0.20219838E-01
  0.60646177E-02 -0.18365736E-01  0.24207556E-01
  0.17503094E-02  0.13431879E-01  0.40626630E-02
  0.22891560E-02  0.14842724E-01 -0.63417155E-02
  0.14805856E-01 -0.74986815E-02 -0.32762144E-02
 -0.19319595E-01 -0.14140642E-01 -0.44379782E-02
 -0.55295065E-02  0.19880084E-01 -0.84485144E-02
 -0.10210179E-01 -0.71100237E-02  0.16313580E-01
 -0.41989620E-02  0.15531071E-01  0.64558116E-02
 -0.54222521E-02 -0.29479258E-02 -0.22297095E-02
  0.80323746E-03 -0.18262576E-02 -0.64908330E-02
  0.29173833E-02 -0.22369866E-01 -0.35737437E-01
 -0.34498708E-02  0.62368580E-02 -0.73909942E-02
 -0.10374331E-01  0.27395156E-01 -0.73018308E-02
  0.76696210E-02  0.42366745E-03  0.59561310E-02
  0.20586187E-01 -0.34867391E-02  0.19388474E-01
  0.48516479E-03  0.78155361E-02 -0.12933923E-01
  0.28194378E-02  0.24594634E-01 -0.64032970E-02
 -0.98074727E-02  0.21978807E-02  0.70876800E-02
 -0.49035068E-02  0.15169625E-01  0.84735887E-02
 -0.10575988E-01  0.29527236E-02 -0.21464638E-01
  0.36498740E-02 -0.10702461E-01  0.55911324E-02
 -0.31641627E-01 -0.12652623E-02 -0.17990947E-01
 -0.92318993E-02  0.19026928E-02 -0.21442804E-01
  0.88923728E-02 -0.31826541E-02  0.21707944E-01
 -0.30078469E-01 -0.32375072E-01  0.20240142E-01
  0.14365716E-06 -0.36142668E-02  0.10034769E-01
  0.72598841E-02  0.27700853E-02 -0.23017765E-02
 -0.84732430E-02 -0.22978343E-01  0.19288003E-01
  0.26131543E-02  0.54501608E-02 -0.25263270E-02
  0.72700403E-02 -0.17929048E-01 -0.70990740E-02
 -0.12271729E-01 -0.28800932E-02 -0.85533140E-02
  0.27686070E-01  0.73754899E-02  0.15175427E-01
 -0.21975371E-01 -0.15303732E-01  0.14476552E-01
 -0.82215521E-02  0.16732903E-01  0.65254666E-02
  0.57385147E-01  0.28651682E-01  0.26687091E-01
 -0.33421626E-01  0.63312300E-02 -0.14273445E-01
  0.11837568E-01 -0.83975961E-02  0.10908712E-01
 -0.58045418E-02  0.10997463E-01  0.41562281E-02
 -0.25249172E-01 -0.28870780E-01  0.13647031E-01
 -0.32285689E-02  0.37387508E-02 -0.16483396E-01
  0.26634505E-02  0.17134630E-01 -0.36262750E-02
  0.29479552E-01 -0.83171450E-02  0.18015234E-01
 -0.76644243E-02  0.90067110E-02 -0.12261040E-01
 -0.11283914E-01  0.16869002E-01 -0.27506796E-01
 -0.78435814E-02 -0.11548605E-01  0.90964157E-02
 -0.20593674E-01  0.21642005E-02  0.71055035E-02
  0.16759949E-02 -0.70928282E-02 -0.35336919E-02
  0.31401044E-02 -0.30994502E-01  0.39190386E-02
 -0.92907805E-02  0.92822310E-02  0.31314016E-02
  0.13549029E-03 -0.81330734E-02 -0.29583205E-01
  0.11002811E-01 -0.19831262E-01  0.31016575E-01
  0.41375658E-02  0.96365428E-03 -0.23632905E-02
 -0.49519989E-02  0.11902703E-01 -0.85008607E-02
 -0.10816787E-01 -0.71463485E-02 -0.25712426E-02
 -0.76409934E-02 -0.26781778E-01 -0.21892776E-01
  0.61061081E-03  0.26343365E-01 -0.26700111E-01
  0.17448622E-02 -0.14452024E-01 -0.10875456E-01
  0.14241701E-01 -0.11356545E-02  0.11194659E-01
  0.18431170E-01  0.99299003E-02 -0.61221807E-02
  0.10666477E-01 -0.71992644E-02  0.19676343E-01
 -0.25811206E-01  0.22807554E-02 -0.17686287E-02
  0.35961148E-01 -0.19335759E-02  0.71533034E-02
  0.15834229E-01 -0.24519585E-01 -0.57910792E-02
  0.42686986E-02 -0.23079901E-01 -0.21104719E-01
 -0.17410886E-01  0.60385676E-02  0.10383258E-01
 -0.41101593E-01 -0.49016634E-02 -0.52236978E-02
 -0.47106436E-01 -0.13063490E-01  0.14367426E-01
  0.38839992E-01  0.40737671E-02 -0.13719747E-01
  0.13716275E-01 -0.27193892E-01 -0.42311713E-02
 -0.99115681E-02 -0.25339899E-02  0.59326584E-03
  0.22978574E-01  0.11455399E-01 -0.99388528E-02
  0.11427227E-01 -0.28668208E-01 -0.15501613E-01
 -0.10682349E-01 -0.20529414E-01  0.94358093E-02
 -0.40166815E-02  0.13355222E-01 -0.84329107E-02
  0.95185350E-02 -0.26877351E-01 -0.14440953E-01
 -0.45084499E-02 -0.30981972E-02  0.12125726E-01
  0.12036339E-01 -0.12390107E-01 -0.12874849E-01
  0.23357658E-01  0.27348963E-02 -0.55978254E-03
 -0.48543292E-02 -0.33270972E-02 -0.17844403E-02
  0.33390247E-01 -0.28661043E-01 -0.44286282E-01
 -0.24124991E-01 -0.23040151E-01  0.55219001E-02
  0.15336601E-01  0.18936875E-01 -0.10860004E-01
 -0.11777023E-01  0.40671319E-01  0.32637358E-02
  0.41746374E-02 -0.58495919E-02  0.22753426E-01
 -0.16743050E-01  0.20443453E-02  0.29229857E-02
  0.18392669E-01  0.17904101E-01  0.19530502E-02
 -0.18189071E-01 -0.39790705E-02 -0.72900219E-02
  0.15132393E-02  0.11918286E-01 -0.11350951E-01
 -0.14771653E-01 -0.41818366E-01 -0.84002731E-02
  0.28209388E-02 -0.25073564E-01  0.41001510E-02
 -0.90037191E-02 -0.76821168E-02  0.10212578E-01
 -0.44754573E-02  0.85761581E-02  0.17160667E-01
 -0.91056230E-02 -0.80983813E-02 -0.36399993E-02
  0.10094148E-01  0.22821139E-01  0.15278955E-02
 -0.59622840E-02  0.18790849E-02 -0.18220059E-02
 -0.16728566E-01  0.12314643E-02 -0.16845199E-01
  0.47106000E-02  0.96159223E-02 -0.25489191E-01
 -0.14885404E-01 -0.86567875E-02  0.23225158E-01
 -0.99163029E-02 -0.11650221E-02  0.31021014E-01
  0.63424280E-02 -0.93895961E-02  0.12432964E-01
  0.50063847E-02 -0.77114102E-02 -0.33505389E-02
  0.42135529E-02 -0.67139779E-02 -0.21179300E-01
  0.58356607E-02  0.58438242E-03  0.18016285E-01
  0.10110847E-01  0.58860764E-02  0.47528024E-02
 -0.11002483E-01  0.36564214E-02  0.73424547E-02
 -0.22644730E-01 -0.20484678E-01 -0.34946190E-01
 -0.15651127E-01 -0.23174113E-01  0.14061235E-01
  0.22278915E-02  0.19339108E-02  0.46294935E-03
 -0.21516949E-01  0.42330085E-01 -0.17968092E-02
 -0.27682629E-01  0.16015020E-01  0.44545990E-02
  0.12566584E-01  0.32126521E-01 -0.10958416E-01
  0.18415356E-01 -0.84206145E-02  0.44845531E-01
 -0.93819895E-02 -0.21251211E-01  0.10392679E-01
  0.15010640E-01  0.35994026E-02  0.14830466E-02
  0.11713147E-01  0.79174577E-02 -0.45032082E-02
 
           1
   1.00000000000000     
  0.18695727E+01  0.25066045E-01 -0.49926005E-17  0.00000000E+00
  0.21828186E-02  0.16929088E+00  0.73164438E+00
  0.48650422E+00  0.26002098E+00  0.78145782E+00
  0.58341979E-01  0.13570862E+00  0.41978934E+00
  0.54428283E+00  0.95233011E-01  0.40972133E+00
  0.50558617E+00  0.32142092E+00  0.18417879E+00
  0.11464135E-01  0.23545252E+00  0.21581690E+00
  0.52783988E+00  0.60604386E+00  0.87630965E+00
  0.93418907E+00  0.43195230E+00  0.82280160E+00
  0.41934122E+00  0.32220202E-01  0.21058999E+00
  0.92087487E+00  0.97039034E+00  0.17647246E+00
  0.56722987E-01  0.90389024E-01  0.98459341E+00
  0.68593864E+00  0.24630584E+00  0.20559937E+00
  0.18516665E+00  0.32084009E+00  0.79783112E+00
  0.71103860E+00  0.31103833E+00  0.89636457E+00
  0.63706422E-01  0.37283060E+00  0.51012775E+00
  0.67932286E+00  0.52600206E+00  0.75736812E+00
  0.95376856E+00  0.34134303E+00  0.52738190E-02
  0.53901085E+00  0.57273554E+00  0.13782416E+00
  0.22798290E+00  0.47492322E+00  0.25803234E-01
  0.79313588E+00  0.42614420E+00  0.28361714E+00
  0.51082055E+00  0.81657094E+00  0.18304420E+00
  0.72652841E+00  0.93004941E+00  0.98172547E+00
  0.70552255E-01  0.88484477E+00  0.53150891E+00
  0.28363246E+00  0.17688565E+00  0.48726129E+00
  0.34503730E+00  0.66984985E+00  0.98241624E+00
  0.73170017E+00  0.72682874E+00  0.92182579E+00
  0.18710981E+00  0.99387870E+00  0.21531323E+00
  0.65675656E+00  0.99606342E+00  0.20066035E+00
  0.44697055E-01  0.60004489E+00  0.93688786E+00
  0.45401277E+00  0.48124560E+00  0.65442545E+00
  0.32991856E+00  0.78342934E+00  0.69427746E+00
  0.96862231E+00  0.76273977E+00  0.77346741E+00
  0.51839079E+00  0.35323450E+00  0.45345837E+00
  0.84489112E+00  0.34555057E+00  0.63955666E+00
  0.19847303E+00  0.65585329E+00  0.14154949E+00
  0.71960411E+00  0.68709772E+00  0.28502933E+00
  0.35316441E+00  0.96446798E+00  0.54349413E+00
  0.81699658E+00  0.90697244E+00  0.42759815E+00
  0.44233315E+00  0.62598712E+00  0.38810722E+00
  0.89301167E+00  0.64035789E+00  0.58981922E+00
  0.19493693E+00  0.61176721E+00  0.47516043E+00
  0.61196361E+00  0.70062591E+00  0.61137959E+00
  0.56896285E+00  0.85485188E+00  0.44221632E+00
  0.84346423E-02  0.50085745E+00  0.31020547E+00
  0.24017820E+00  0.80832737E+00  0.38911108E+00
  0.99379870E+00  0.70233848E+00  0.35969913E+00
  0.30990935E+00  0.23844267E+00  0.28630503E+00
  0.78035091E+00  0.18862189E+00  0.43664456E+00
  0.17668185E+00  0.56475514E+00  0.72151169E+00
  0.80567809E+00  0.51475737E+00  0.24720607E-01
  0.12576799E+00  0.96008497E+00  0.75845555E+00
  0.49694355E+00  0.43892134E-01  0.72902896E+00
  0.29116076E+00  0.37791174E+00  0.60963092E+00
  0.73092841E+00  0.14714729E+00  0.68969816E+00
  0.26419071E+00  0.45208037E+00  0.29232367E+00
  0.63527593E+00  0.54272460E+00  0.45917706E+00
  0.46042452E+00  0.83067383E+00  0.90917737E+00
  0.91846254E+00  0.72538774E+00  0.68059276E-01
  0.24841780E+00  0.22085485E+00  0.62556690E-01
  0.78898637E+00  0.14747139E+00  0.98976166E+00
  0.11361116E+00  0.86921857E+00  0.96610260E+00
  0.53242373E+00  0.96718680E-01  0.11829112E-01
  0.31508271E+00  0.34694371E-01  0.88761737E+00
  0.74032150E+00  0.91524334E+00  0.67476865E+00
  0.54754661E-01  0.64469170E+00  0.96674951E-01
  0.57459695E+00  0.92981722E+00  0.60712933E-01
  0.56000825E-01  0.62107764E+00  0.69825255E+00
  0.69684520E+00  0.78433152E+00  0.67663921E+00
  0.32872062E+00  0.44534197E+00  0.75488362E+00
  0.82455470E+00  0.40381531E+00  0.93259067E+00
  0.38053322E+00  0.13225438E+00  0.78034465E+00
  0.63858405E+00  0.23262694E+00  0.76011403E+00
  0.26054215E+00  0.63330569E-01  0.60926355E-01
  0.80778456E+00  0.70444446E-01  0.12449657E+00
  0.99425839E+00  0.27993481E+00  0.40424343E+00
  0.41933314E+00  0.46941012E+00  0.50091197E+00
  0.10948718E+00  0.71967293E+00  0.46876161E+00
  0.67656653E+00  0.75398156E+00  0.41534989E+00
  0.42563545E+00  0.91414946E+00  0.70160496E+00
  0.82603858E+00  0.29753642E-01  0.70310043E+00
  0.15966082E-01  0.97386912E+00  0.66727493E+00
  0.54389890E+00  0.69513971E-01  0.57948367E+00
  0.44413381E-01  0.68915868E-01  0.27840460E+00
  0.71379443E+00  0.79253808E-01  0.35856797E+00
  0.53038797E+00  0.63586586E+00  0.70744412E+00
  0.87229199E+00  0.61894106E+00  0.95215213E+00
  0.88242369E-01  0.42110706E+00  0.15769910E-01
  0.48358656E+00  0.72897211E+00  0.33059729E-01
  0.44801983E+00  0.99619852E+00  0.93532094E+00
  0.75789444E-02  0.77586985E+00  0.92148507E+00
  0.30815062E+00  0.59356749E+00  0.34092290E+00
  0.72527749E+00  0.62739982E+00  0.56034595E+00
  0.36570269E-01  0.21930597E+00  0.60944058E-01
  0.66714635E+00  0.10093266E+00  0.95644633E+00
  0.51906527E+00  0.50439590E+00  0.30051513E+00
  0.99350964E+00  0.35565326E+00  0.64780302E+00
  0.41177534E+00  0.17330584E+00  0.39018405E+00
  0.87255263E+00  0.82812120E-01  0.48633120E+00
  0.16639675E-01  0.28226252E+00  0.84576980E+00
  0.56320956E+00  0.41621071E+00  0.78793669E+00
  0.27515740E+00  0.61969165E+00  0.62242823E+00
  0.83709224E+00  0.60845847E+00  0.72339185E+00
  0.23941174E+00  0.30027754E+00  0.40727712E+00
  0.60967346E+00  0.42234365E+00  0.52957011E+00
  0.61688420E+00  0.70952101E+00  0.20209726E+00
  0.10953617E-01  0.38926400E+00  0.17751033E+00
  0.15687136E+00  0.44234672E+00  0.62457347E+00
  0.76720772E+00  0.43592140E+00  0.70726020E+00
  0.38645342E+00  0.35528153E+00  0.31046771E+00
  0.84438922E+00  0.44302075E+00  0.48395293E+00
  0.18968554E+00  0.93432322E-01  0.80757367E+00
  0.64575010E+00  0.99994774E+00  0.75922345E+00
  0.95687275E+00  0.81225120E+00  0.16013378E+00
  0.50808855E+00  0.93636573E+00  0.33514837E+00
  0.27574275E+00  0.31223788E+00  0.93424045E+00
  0.77980352E+00  0.26557294E+00  0.43899697E-01
  0.11309136E+00  0.50559458E+00  0.43994382E+00
  0.50723878E+00  0.67194339E+00  0.51116233E+00
  0.90291700E+00  0.12392077E+00  0.93671793E+00
  0.60139815E+00  0.43348529E+00  0.51088567E-02
  0.46475245E+00  0.19544278E+00  0.95157063E+00
  0.47870082E-01  0.96800388E+00  0.89064854E+00
  0.29283202E+00  0.80141974E+00  0.52450488E+00
  0.96888990E+00  0.75000407E+00  0.58067848E+00
  0.27452499E+00  0.38922566E+00  0.17196677E+00
  0.67957913E+00  0.42599849E+00  0.16260297E+00
  0.23096745E+00  0.77722423E+00  0.34982277E-01
  0.57332126E+00  0.16580719E+00  0.15448091E+00
  0.36629007E+00  0.60403606E+00  0.15808146E+00
  0.87470631E+00  0.65637825E+00  0.25030648E+00
  0.40171019E+00  0.74073335E+00  0.83749738E+00
  0.79629131E+00  0.82309497E+00  0.74792878E-01
  0.39670355E+00  0.50299453E+00  0.94355333E+00
  0.84614268E+00  0.48343490E+00  0.15317385E+00
  0.20169267E+00  0.95194160E+00  0.41374293E+00
  0.71222317E+00  0.93321300E+00  0.51409347E+00
  0.37074340E+00  0.19284757E+00  0.16711888E+00
  0.82819825E+00  0.22524949E+00  0.30107921E+00
  0.18245217E+00  0.53759197E+00  0.86926759E+00
  0.66062932E+00  0.60326220E+00  0.96822194E+00
  0.17060368E+00  0.78300764E+00  0.27784087E+00
  0.96446335E+00  0.85571921E+00  0.41636231E+00
  0.22930476E+00  0.25549407E-02  0.66134853E+00
  0.86466948E+00  0.87700014E+00  0.57055734E+00
  0.13673657E+00  0.55053065E+00  0.26262293E+00
  0.72373923E+00  0.53765683E+00  0.34369719E+00
  0.45175742E+00  0.28819525E+00  0.58562209E+00
  0.84167547E+00  0.23196002E+00  0.73203554E+00
  0.60703768E+00  0.84167191E+00  0.88853892E+00
  0.15759464E+00  0.82734899E+00  0.79196685E+00
  0.32480906E+00  0.88510604E+00  0.24606897E+00
  0.77463698E+00  0.86700782E+00  0.27358925E+00
  0.20474257E+00  0.18388093E+00  0.21142752E+00
  0.59357194E+00  0.25221217E+00  0.38319941E+00
  0.22972044E+00  0.25447042E+00  0.61385963E+00
  0.75653043E+00  0.26940027E+00  0.55655462E+00
  0.76525849E-01  0.95557835E+00  0.72427200E-01
  0.48596528E+00  0.84617711E+00  0.53879370E+00
  0.29075001E+00  0.91177723E+00  0.89517537E+00
  0.83813837E+00  0.83643392E+00  0.86560757E+00
  0.46684740E+00  0.74793533E+00  0.35004349E+00
  0.89819975E+00  0.62698167E+00  0.44449683E+00
  0.45859242E+00  0.36503923E+00  0.97096311E+00
  0.88864956E+00  0.97296290E+00  0.83724314E+00
  0.64990888E-04  0.37095954E-03 -0.55135838E-03
 -0.16724646E-02  0.20046326E-03 -0.39503877E-03
 -0.30310789E-02 -0.80407323E-03 -0.75638416E-04
 -0.16230740E-02  0.65166588E-03  0.50840792E-03
  0.16927599E-02 -0.63564674E-03  0.13053636E-02
 -0.13373910E-02  0.27197084E-03 -0.58556759E-03
 -0.32304750E-04  0.11013785E-02  0.15140295E-02
 -0.54457925E-03  0.18236291E-03  0.47726109E-04
 -0.37635177E-03 -0.54348183E-03 -0.20914999E-02
 -0.82911604E-03 -0.99736252E-03 -0.10212840E-02
 -0.23095729E-02 -0.52471582E-03 -0.28219555E-02
  0.16808701E-02 -0.10559727E-02 -0.12495431E-02
 -0.12223362E-02 -0.10742581E-02  0.15966016E-02
  0.26796093E-03  0.20121621E-02 -0.11390552E-02
  0.25889587E-03  0.38295467E-03  0.41713974E-03
  0.15139589E-02  0.15223237E-02 -0.18924676E-02
  0.81953991E-03 -0.15368565E-02 -0.15842642E-03
 -0.41793046E-03  0.11441433E-02  0.76986310E-03
  0.12519626E-02  0.75905913E-03  0.76265900E-04
 -0.85921050E-03  0.10880304E-02  0.78615947E-03
 -0.15183726E-04 -0.10822514E-02 -0.31675918E-03
  0.61178769E-03  0.17384384E-02 -0.10557358E-02
  0.88023356E-03 -0.23173389E-03  0.65601699E-04
  0.28220209E-04  0.21482830E-02  0.11061656E-02
  0.60702620E-03 -0.38709734E-04  0.31969957E-03
  0.13608659E-03  0.53458172E-03 -0.43391034E-03
 -0.37491262E-04  0.12090303E-02 -0.10778764E-02
  0.82475157E-04  0.34631973E-03 -0.77718251E-03
 -0.70688853E-03 -0.13172805E-02  0.15108164E-02
  0.15539156E-02 -0.51866807E-03 -0.14555810E-03
  0.10511772E-02  0.97079439E-03  0.18037848E-03
  0.17195794E-02 -0.10981949E-02 -0.10886155E-03
  0.41578540E-02  0.19169789E-03  0.52246063E-03
 -0.35312824E-03 -0.20099004E-02  0.12861694E-02
  0.20745603E-03 -0.22890441E-03  0.11529454E-02
  0.26292001E-03  0.55153188E-03  0.10948292E-02
  0.22096097E-02 -0.81551425E-03  0.28125797E-02
 -0.21795871E-02  0.18964569E-02  0.13053183E-02
  0.13280913E-02  0.19856065E-03  0.81131786E-03
 -0.38118385E-03  0.10891168E-02  0.54072167E-03
 -0.15094967E-02 -0.85664139E-03 -0.75109802E-03
 -0.17299845E-02 -0.18379088E-04 -0.11739316E-02
 -0.65187909E-03  0.17028946E-03  0.11586882E-02
  0.21006091E-03 -0.41979683E-03 -0.68107200E-03
 -0.11441241E-03  0.13345251E-02 -0.17197890E-02
  0.63252668E-03 -0.88337238E-03  0.14866519E-02
  0.13000235E-02  0.38870075E-03 -0.70676786E-03
 -0.60337395E-03  0.11112820E-02  0.17129719E-02
  0.75919869E-03  0.11476389E-02 -0.18051505E-02
  0.63241539E-03 -0.16160194E-02  0.21391561E-02
  0.14161882E-03  0.11498292E-02  0.40180125E-03
  0.19153234E-03  0.13652671E-02 -0.48738089E-03
  0.12840800E-02 -0.68839904E-03 -0.29076441E-03
 -0.16942272E-02 -0.12661378E-02 -0.38953461E-03
 -0.49255556E-03  0.17480483E-02 -0.77555165E-03
 -0.95976549E-03 -0.64221009E-03  0.14544261E-02
 -0.47861307E-03  0.12800576E-02  0.48245411E-03
 -0.48630143E-03 -0.27678844E-03 -0.19857689E-03
  0.76192422E-04 -0.15411506E-03 -0.60105697E-03
  0.22956068E-03 -0.18703130E-02 -0.33019110E-02
 -0.35841358E-03  0.62663663E-03 -0.67624023E-03
 -0.96108751E-03  0.24775675E-02 -0.68597196E-03
  0.70190428E-03 -0.14774542E-03  0.54015074E-03
  0.18168662E-02 -0.32825761E-03  0.17764317E-02
  0.67362240E-04  0.70279327E-03 -0.11462422E-02
  0.26086421E-03  0.20847976E-02 -0.71895058E-03
 -0.78213542E-03  0.17613922E-03  0.60699517E-03
 -0.45808904E-03  0.12812099E-02  0.65760060E-03
 -0.89703617E-03  0.33860962E-03 -0.18058803E-02
  0.29948067E-03 -0.11409000E-02  0.51744505E-03
 -0.28699319E-02 -0.40370759E-04 -0.15623870E-02