 VASP POSCAR/CONTCAR file created by 'ta
   9.06566930901403     
     1.0000000000000000    0.0000000000000000    0.0000000000000000
     0.0000000000000000    0.9999999999999988    0.0000000000000000
     0.0000000000000000    0.0000000000000000    0.9999999999999994
   Mg   Si   O    Fe
    16    16    51     2
Direct
  0.0407745840958528  0.8418287874075793  0.7230732750089630
  0.1713480118499698  0.6201428749119499  0.6734853113504324
  0.0199969376772588  0.8689571337182458  0.3941128057493579
  0.2317106318114669  0.0999942542507245  0.0683483163557006
  0.4796118880796383  0.6800840610970913  0.7448930719476472
  0.5816184380889217  0.5564615774940940  0.3902283723206048
  0.5071017127422716  0.0163335542305823  0.0267920633943334
  0.8199745162374678  0.3966001727281911  0.1495989782517457
  0.1825272028280662  0.1661802098198776  0.5737128210621882
  0.7376087760067385  0.7067036119402018  0.9733431828918191
  0.8984902221163901  0.1424936226306633  0.5988228810201864
  0.0814616298297708  0.4660322649686780  0.2691587396909550
  0.6178208742399816  0.1005210448610723  0.3305367278743294
  0.7615454983963453  0.5063915030717115  0.8182831054083087
  0.6743506778150348  0.9271945014649690  0.7228918013516813
  0.8680962662726984  0.0497616122666299  0.0198974505937760
  0.6861895124525125  0.2119050619587865  0.8687653103606475
  0.3622464561342824  0.0197984368833103  0.7817757387580344
  0.8210939265908656  0.7577487210011208  0.5456024949966674
  0.8259200279890526  0.3942950971980487  0.4416124701334347
  0.3509142330617283  0.7834325053146209  0.5270202634229871
  0.3603904432652672  0.2412086642395775  0.3265095095082283
  0.9425004384701654  0.1477699994798403  0.2461976741619806
  0.5672366123155550  0.2552746856003722  0.5806124462443110
  0.3539155485321991  0.3629457691814003  0.7957658280732189
  0.0351273618375650  0.3355876670809302  0.9381383330057649
  0.3257706321253998  0.3911663222153307  0.0721798580167663
  0.9995230897331094  0.7983976688307564  0.0796662897496349
  0.3146318947589370  0.7338029486443858  0.9884277492402771
  0.5760639484978256  0.8086206077046297  0.3456994779362642
  0.5127896689025601  0.5470942531013143  0.0538613390086722
  0.0375569080168946  0.3863327897212487  0.6302148982685049
  0.4139564828060739  0.7085561953448158  0.3251044660135551
  0.0909562430558132  0.6784982228814386  0.2578477896495594
  0.4436894037769598  0.4795548083501676  0.1962463809306806
  0.3423235052437626  0.5354772980604831  0.8123517045482770
  0.6853417778447841  0.9939679525245807  0.9517619337465405
  0.3842101159222247  0.1365648707078572  0.9132906218959198
  0.9393894230311653  0.8310179394517289  0.9253539308605043
  0.6732494563171521  0.1478836541733836  0.7051961703291603
  0.0310064640995747  0.5100067446723798  0.8452235879741681
  0.4806491131014314  0.1798493498224580  0.2049876633792235
  0.8089443983974847  0.3736119286296395  0.6247326045315196
  0.2012315563198683  0.7732387509622785  0.8456490881261619
  0.7264459478488939  0.8700633720032257  0.4350576181656423
  0.9290607698070709  0.6722499448978057  0.6377676582658343
  0.2275937435294705  0.3272334094351141  0.6594909334930636
  0.6368849894862815  0.6898486041097988  0.5737434793189414
  0.9520520457445798  0.2885752516321042  0.3182115607238266
  0.3246965602500498  0.9272394584435796  0.0570488981950175
  0.4439153621934234  0.3679772710919309  0.4720394676563805
  0.5239654940923120  0.8897895092331489  0.4931796224243941
  0.2948504254866665  0.7064524396321533  0.1559245946633767
  0.9924164641521234  0.0543250228951981  0.3577192791805156
  0.8465901285020024  0.5581802155831608  0.3622525265298761
  0.9811278262548320  0.4888751972595100  0.0694025952709315
  0.4557949734166460  0.8876477587315607  0.8905208987568798
  0.4528019158245719  0.3751802131602918  0.9607066494296239
  0.5194161325085664  0.3748702648962748  0.6978506426851663
  0.7017835349211086  0.7212971798396424  0.7683779826156298
  0.1921919855879942  0.0387264115571775  0.7250081270719088
  0.6039769395766204  0.6818206026213793  0.1948633438766606
  0.4331201657679051  0.1236469123688179  0.6590047210108853
  0.2399300983672372  0.5628385983464196  0.0377641216755966
  0.0253832852871164  0.9629008020393925  0.1410484251311201
  0.8295010750781957  0.3305780415678254  0.8959101373332081
  0.2393337744956590  0.1166145219089222  0.3945662858202896
  0.4879169872303694  0.1394847943030892  0.4548729952737559
  0.0855168999665829  0.5033403258299908  0.4809587578828156
  0.5300898607683595  0.9452604689290497  0.2488037771944346
  0.7665961339994202  0.1587186243943731  0.1876109736047028
  0.0077648868358876  0.2482662929989826  0.7165423060113246
  0.4922268665996050  0.6699198520397598  0.9532152250499610
  0.6857437134693983  0.5007308239615346  0.0150723204083747
  0.1767232971820970  0.8116200713528670  0.5579144504840209
  0.8644316521315898  0.6860617382414792  0.1458908256092916
  0.8818254479105189  0.9414611687509632  0.6449913939473333
  0.3751299671053124  0.6015992408404670  0.5884483910058447
  0.0118615076392477  0.2205063679029905  0.0795479512473811
  0.2195725197221299  0.2937740604832557  0.2041109876811866
  0.7363065731005337  0.2494126471912236  0.4590550157029368
  0.2163535535241363  0.3289563610237601  0.9098529256811762
  0.7000000000000000  0.7000000000000000  0.2000000000000000
  0.3352444736758821  0.5155003216710362  0.3899263890947764
  0.2866048670719304  0.8848486912721394  0.2317785078810637
