 VASP POSCAR/CONTCAR file created by 'ta
8.816804157717504
   2.519842099789750   0.000000000000000   0.000000000000000
   0.000000000000000   1.259921049894872   0.000000000000000
   0.000000000000000   0.000000000000000   1.259921049894872
   Mg   Si   O    Pb
   64   64   194  2
Direct
   0.446950676408727   0.143666723098386   0.686144702691613
   0.946950676408727   0.143666723098386   0.686144702691613
   0.233040217973923   0.276141294750398   0.604025865504360
   0.733040217973923   0.276141294750398   0.604025865504360
   0.006908576518787   0.782308688515105   0.245905208039934
   0.506908576518787   0.782308688515105   0.245905208039934
   0.185101870056277   0.053767195726904   0.435706123020971
   0.685101870056277   0.053767195726904   0.435706123020971
   0.212806683578950   0.419074564521111   0.161653136624833
   0.712806683578950   0.419074564521111   0.161653136624833
   0.479459175516712   0.297607698899728   0.394966895344643
   0.979459175516712   0.297607698899728   0.394966895344643
   0.222886178372602   0.603238524308203   0.888849175459759
   0.722886178372602   0.603238524308203   0.888849175459759
   0.433674337579959   0.522835650948868   0.930454295946789
   0.933674337579959   0.522835650948868   0.930454295946789
   0.148601628233832   0.166681266597780   0.136299218376143
   0.648601628233832   0.166681266597780   0.136299218376143
   0.480649889198681   0.976677409371621   0.177313653117826
   0.980649889198681   0.976677409371621   0.177313653117826
   0.039395254812502   0.156214175163033   0.910856388951549
   0.539395254812502   0.156214175163033   0.910856388951549
   0.275010677052709   0.183347638316742   0.253685302495339
   0.775010677052709   0.183347638316742   0.253685302495339
   0.079540536654097   0.559423379195273   0.931810680516691
   0.579540536654097   0.559423379195273   0.931810680516691
   0.311255257858056   0.360831877852498   0.792058896811367
   0.811255257858056   0.360831877852498   0.792058896811367
   0.038735289027795   0.482269151738604   0.498048660145690
   0.538735289027795   0.482269151738604   0.498048660145690
   0.494325824144119   0.397777228477593   0.693007990801342
   0.994325824144119   0.397777228477593   0.693007990801342
   0.457383699391243   0.281252214805098   0.181204530695368
   0.957383699391243   0.281252214805098   0.181204530695368
   0.289559889393308   0.671980339135981   0.021094533654982
   0.789559889393308   0.671980339135981   0.021094533654982
   0.138756329014608   0.608765800497684   0.114179115730328
   0.638756329014608   0.608765800497684   0.114179115730328
   0.355835187294873   0.440841497263928   0.286935610266705
   0.855835187294873   0.440841497263928   0.286935610266705
   0.315223351660141   0.939356809446446   0.378664781163247
   0.815223351660141   0.939356809446446   0.378664781163247
   0.355950643994680   0.088745155283852   0.780859434921480
   0.855950643994680   0.088745155283852   0.780859434921480
   0.081958533118565   0.822006798552407   0.429897257838302
   0.581958533118565   0.822006798552407   0.429897257838302
   0.034185722805873   0.022907918819031   0.454427905675008
   0.534185722805873   0.022907918819031   0.454427905675008
   0.173333938317022   0.820030197446003   0.085864621455024
   0.673333938317022   0.820030197446003   0.085864621455024
   0.335444334105075   0.635682696164118   0.768878299788429
   0.835444334105075   0.635682696164118   0.768878299788429
   0.065623444093699   0.162248903965800   0.282008137401580
   0.565623444093699   0.162248903965800   0.282008137401580
   0.378416902765947   0.182693223263776   0.039659523203165
   0.878416902765947   0.182693223263776   0.039659523203165
   0.450981029554448   0.987458301467457   0.938455019007969
   0.950981029554448   0.987458301467457   0.938455019007969
   0.215240656634027   0.515488721616488   0.712544685279247
   0.715240656634027   0.515488721616488   0.712544685279247
   0.128324484422312   0.801895569345806   0.890414410780758
   0.628324484422311   0.801895569345806   0.890414410780758
   0.473678123705268   0.606359798376158   0.764098821489036
   0.973678123705268   0.606359798376158   0.764098821489036
   0.255079772361467   0.401926496439249   0.373356202239648
   0.755079772361467   0.401926496439249   0.373356202239648
   0.383004259271194   0.292137090447670   0.534165999711882
   0.883004259271194   0.292137090447670   0.534165999711882
   0.009365942410959   0.752976644243247   0.981032225518728
   0.509365942410959   0.752976644243247   0.981032225518728
   0.465368779701712   0.607261518627984   0.407709754347225
   0.965368779701712   0.607261518627984   0.407709754347225
   0.129829785916338   0.900114381621151   0.666241040244712
   0.629829785916338   0.900114381621151   0.666241040244712
   0.426762606368835   0.946287972851555   0.410936487792197
   0.926762606368835   0.946287972851555   0.410936487792197
   0.370804629855673   0.723312744418094   0.315870872656856
   0.870804629855673   0.723312744418094   0.315870872656856
   0.387351291539257   0.492019984373739   0.608499882409645
   0.887351291539257   0.492019984373739   0.608499882409645
   0.139160915801463   0.564185888765048   0.511425426249470
   0.639160915801463   0.564185888765048   0.511425426249470
   0.314880349544467   0.789386840193413   0.661914457448298
   0.814880349544467   0.789386840193413   0.661914457448298
   0.194506677682601   0.743087035842070   0.588434710974755
   0.694506677682601   0.743087035842070   0.588434710974755
   0.490218097902170   0.509740948411674   0.171718454985082
   0.990218097902170   0.509740948411674   0.171718454985082
   0.105977588639757   0.920324040028280   0.221626519511565
   0.605977588639757   0.920324040028280   0.221626519511565
   0.105465327474531   0.443536659728441   0.298969305258383
   0.605465327474531   0.443536659728441   0.298969305258383
   0.159494512693374   0.249930228428714   0.399356367754242
   0.659494512693374   0.249930228428714   0.399356367754242
   0.396275485928402   0.120897662883345   0.284592082611042
   0.896275485928402   0.120897662883345   0.284592082611042
   0.112968784750073   0.423356708263687   0.717983939310233
   0.612968784750073   0.423356708263687   0.717983939310233
   0.323703192107252   0.434095709088422   0.026852822908135
   0.823703192107252   0.434095709088422   0.026852822908135
   0.019298081463235   0.853867201463491   0.734382277966485
   0.519298081463235   0.853867201463491   0.734382277966485
   0.261520253633058   0.897901238334951   0.901219955969670
   0.761520253633058   0.897901238334951   0.901219955969670
   0.084937044794437   0.167048578589370   0.629882413097877
   0.584937044794437   0.167048578589370   0.629882413097877
   0.304664723855172   0.118139553699447   0.544325917917816
   0.804664723855172   0.118139553699447   0.544325917917816
   0.238405746804986   0.778505075265434   0.322203748387414
   0.738405746804986   0.778505075265434   0.322203748387414
   0.286625056034817   0.555071284354549   0.501582729005797
   0.786625056034817   0.555071284354549   0.501582729005797
   0.317531623534401   0.939281287645238   0.068253633495818
   0.817531623534401   0.939281287645238   0.068253633495818
   0.406642898534993   0.786745551743593   0.088278262728557
   0.906642898534993   0.786745551743593   0.088278262728557
   0.069372636747086   0.354446158619100   0.072492107720230
   0.569372636747086   0.354446158619100   0.072492107720230
   0.442897365998956   0.290841574965557   0.864717532888709
   0.942897365998956   0.290841574965557   0.864717532888709
   0.080494570984121   0.998571839124350   0.017838194315369
   0.580494570984121   0.998571839124350   0.017838194315369
   0.274121926808936   0.144380574429428   0.973281006005590
   0.774121926808936   0.144380574429428   0.973281006005590
   0.174749161282664   0.066041014521655   0.804602766993923
   0.674749161282664   0.066041014521655   0.804602766993923
   0.425412435115173   0.895688132494823   0.625839189570932
   0.925412435115173   0.895688132494823   0.625839189570932
   0.462950186922709   0.853075878793977   0.017567724826704
   0.962950186922710   0.853075878793977   0.017567724826704
   0.302280908591259   0.011983276679388   0.227931449599901
   0.802280908591259   0.011983276679388   0.227931449599901
   0.088416260576877   0.372736666668983   0.891244379695646
   0.588416260576877   0.372736666668983   0.891244379695646
   0.383589828668362   0.857203208759901   0.486532425647053
   0.883589828668362   0.857203208759901   0.486532425647053
   0.106868537214029   0.118958790347014   0.764261929461962
   0.606868537214029   0.118958790347014   0.764261929461962
   0.385992791744964   0.349626467030859   0.925605767516578
   0.885992791744964   0.349626467030859   0.925605767516578
   0.261000080751093   0.004039532480641   0.813760943250066
   0.761000080751093   0.004039532480641   0.813760943250066
   0.284328122248281   0.323065841412477   0.971514506008594
   0.784328122248281   0.323065841412477   0.971514506008594
   0.124602721051225   0.343498397301941   0.180558398098444
   0.624602721051225   0.343498397301941   0.180558398098444
   0.437716967283347   0.142780586404217   0.900095394142017
   0.937716967283347   0.142780586404217   0.900095394142017
   0.497002136371851   0.922862420243902   0.381287014759578
   0.997002136371851   0.922862420243902   0.381287014759578
   0.049500895933600   0.028592264898883   0.638832394111565
   0.549500895933600   0.028592264898883   0.638832394111565
   0.112685018656139   0.353028150640724   0.413350424804866
   0.612685018656139   0.353028150640724   0.413350424804866
   0.436891093746862   0.795515381472909   0.340917201371577
   0.936891093746862   0.795515381472909   0.340917201371577
   0.205529088022414   0.808462045180613   0.936303067380953
   0.705529088022414   0.808462045180613   0.936303067380953
   0.331766802221379   0.965311148779575   0.637634783493991
   0.831766802221379   0.965311148779575   0.637634783493991
   0.120238480600853   0.922485157248378   0.522582917387656
   0.620238480600853   0.922485157248378   0.522582917387656
   0.187701757748533   0.806982170515009   0.719310959565040
   0.687701757748533   0.806982170515009   0.719310959565040
   0.476099375172196   0.155088562803514   0.331788622457584
   0.976099375172196   0.155088562803514   0.331788622457584
   0.175262393947935   0.167356503584884   0.304456731840153
   0.675262393947935   0.167356503584884   0.304456731840153
   0.337870218142630   0.856188187782636   0.939112108718992
   0.837870218142630   0.856188187782636   0.939112108718992
   0.407539488121761   0.696915830286932   0.977628500166708
   0.907539488121761   0.696915830286932   0.977628500166708
   0.127736105960896   0.651836567073752   0.978035964632943
   0.627736105960896   0.651836567073752   0.978035964632943
   0.283318148679089   0.829085845279508   0.149972926773875
   0.783318148679089   0.829085845279508   0.149972926773875
   0.202236183306604   0.129726457947094   0.933543621250157
   0.702236183306604   0.129726457947094   0.933543621250157
   0.406464964920704   0.532666298604460   0.748110292919452
   0.906464964920704   0.532666298604460   0.748110292919452
   0.175268573671481   0.544928748365524   0.293438832519266
   0.675268573671481   0.544928748365524   0.293438832519266
   0.353608331260365   0.374358312231989   0.638872648871736
   0.853608331260365   0.374358312231989   0.638872648871736
   0.030211739501637   0.241056297296421   0.078823016835340
   0.530211739501637   0.241056297296421   0.078823016835340
   0.358162796957153   0.027933482374662   0.985177953146074
   0.858162796957153   0.027933482374662   0.985177953146074
   0.235596666580199   0.538251736762550   0.068537256798102
   0.735596666580199   0.538251736762550   0.068537256798102
   0.457156133430765   0.306364518518577   0.559044239347521
   0.957156133430765   0.306364518518577   0.559044239347521
   0.192640436835805   0.780611621871513   0.424340445648895
   0.692640436835805   0.780611621871513   0.424340445648895
   0.372090155647877   0.151345975380604   0.607787895745189
   0.872090155647877   0.151345975380604   0.607787895745189
   0.485863791538892   0.419831592093815   0.865042249800927
   0.985863791538892   0.419831592093815   0.865042249800927
   0.217446084947929   0.616280229602319   0.552050373873556
   0.717446084947929   0.616280229602319   0.552050373873556
   0.151797350540263   0.446242246085053   0.585790698236695
   0.651797350540263   0.446242246085053   0.585790698236695
   0.459127346530469   0.561769800215730   0.534783621507646
   0.959127346530469   0.561769800215730   0.534783621507646
   0.061352540185546   0.168420949778829   0.473291844244226
   0.561352540185546   0.168420949778829   0.473291844244226
   0.357002300507250   0.073264030727310   0.409308823595611
   0.857002300507250   0.073264030727310   0.409308823595611
   0.349482020596550   0.691172930622826   0.146472434296262
   0.849482020596550   0.691172930622826   0.146472434296262
   0.002581562383594   0.513586005904768   0.321526998146413
   0.502581562383594   0.513586005904768   0.321526998146413
   0.081745566957935   0.313648327420955   0.663572755208245
   0.581745566957935   0.313648327420955   0.663572755208245
   0.257790159356369   0.448876124040640   0.588740684064657
   0.757790159356369   0.448876124040640   0.588740684064657
   0.207831054829086   0.324501871499388   0.455046849234566
   0.707831054829086   0.324501871499388   0.455046849234566
   0.393018188349345   0.278026939671084   0.397305529508369
   0.893018188349345   0.278026939671084   0.397305529508369
   0.468967492349058   0.952553662055624   0.760016404783065
   0.968967492349058   0.952553662055624   0.760016404783065
   0.267541908283710   0.740003550633408   0.779280592285403
   0.767541908283710   0.740003550633408   0.779280592285403
   0.091679948545258   0.772759543875044   0.241321440702846
   0.591679948545258   0.772759543875044   0.241321440702846
   0.303407802681075   0.777519516802846   0.337710773531064
   0.803407802681075   0.777519516802846   0.337710773531064
   0.107852603553092   0.199763995582813   0.005711454348307
   0.607852603553092   0.199763995582813   0.005711454348307
   0.177044745205085   0.355044427935211   0.755233126765698
   0.677044745205085   0.355044427935211   0.755233126765698
   0.065715594457345   0.492521255136238   0.159585873273339
   0.565715594457346   0.492521255136238   0.159585873273339
   0.264146308292987   0.819161474756588   0.561719399772503
   0.764146308292987   0.819161474756588   0.561719399772503
   0.388271585224563   0.256297823142607   0.784668190638788
   0.888271585224563   0.256297823142607   0.784668190638788
   0.272897336591369   0.515475883465655   0.808857765638540
   0.772897336591369   0.515475883465655   0.808857765638540
   0.271313584005933   0.198778913129670   0.773490042296136
   0.771313584005934   0.198778913129670   0.773490042296136
   0.014228996379054   0.040306174702923   0.999973148164327
   0.514228996379054   0.040306174702923   0.999973148164327
   0.121695853629600   0.684971976584025   0.562041240363133
   0.621695853629600   0.684971976584025   0.562041240363133
   0.481831937499677   0.783923430865524   0.630469206636962
   0.981831937499677   0.783923430865524   0.630469206636962
   0.482703950506375   0.405244265859235   0.038257816171976
   0.982703950506375   0.405244265859235   0.038257816171976
   0.307413530872386   0.413967135503498   0.167303182642692
   0.807413530872386   0.413967135503498   0.167303182642692
   0.083817809194491   0.845700141966897   0.040538511463777
   0.583817809194491   0.845700141966897   0.040538511463777
   0.244441879307200   0.176392886007168   0.110320935326109
   0.744441879307200   0.176392886007168   0.110320935326109
   0.206567559423291   0.704789012482143   0.222904285292592
   0.706567559423291   0.704789012482143   0.222904285292592
   0.400944477045579   0.612320619687036   0.332818309218813
   0.900944477045579   0.612320619687036   0.332818309218813
   0.147744100778467   0.001082715886934   0.000186068428932
   0.647744100778467   0.001082715886934   0.000186068428932
   0.391297570770332   0.888842518713879   0.175008883866820
   0.891297570770332   0.888842518713879   0.175008883866820
   0.146207630054493   0.556403311888264   0.789208036550208
   0.646207630054493   0.556403311888264   0.789208036550208
   0.421609914956286   0.443098052534744   0.212377607906277
   0.921609914956286   0.443098052534744   0.212377607906277
   0.103075206651454   0.987471943869532   0.347830536084930
   0.603075206651454   0.987471943869532   0.347830536084930
   0.420411151513168   0.001074217418378   0.268001942567670
   0.920411151513168   0.001074217418378   0.268001942567670
   0.039679902214280   0.327434530774140   0.285222269076909
   0.539679902214281   0.327434530774140   0.285222269076909
   0.350972479987101   0.247871365599766   0.225238215617707
   0.850972479987101   0.247871365599766   0.225238215617707
   0.054861158601806   0.532867599373613   0.657529345025071
   0.554861158601806   0.532867599373613   0.657529345025071
   0.348282350305692   0.531287431167334   0.930752558480285
   0.848282350305692   0.531287431167334   0.930752558480285
   0.092756311177972   0.567150743276074   0.384107971520423
   0.592756311177972   0.567150743276074   0.384107971520423
   0.024684338482219   0.674628109144813   0.448582386414182
   0.524684338482219   0.674628109144813   0.448582386414182
   0.087409672577692   0.776712648625946   0.715932108016900
   0.587409672577692   0.776712648625946   0.715932108016900
   0.452973217259983   0.037006427197540   0.514753352420522
   0.952973217259983   0.037006427197540   0.514753352420522
   0.472062217805543   0.655314766413975   0.139593152994120
   0.972062217805543   0.655314766413975   0.139593152994120
   0.289055437393385   0.600390778799948   0.334138737004127
   0.789055437393385   0.600390778799948   0.334138737004127
   0.180864369870951   0.998974451727770   0.667085003479535
   0.680864369870951   0.998974451727770   0.667085003479535
   0.309440077659823   0.269704501308066   0.467401093333009
   0.809440077659823   0.269704501308066   0.467401093333009
   0.248504218524781   0.990677928185608   0.042688804992072
   0.748504218524781   0.990677928185608   0.042688804992072
   0.016725764150517   0.744789702836247   0.839051979052761
   0.516725764150517   0.744789702836247   0.839051979052761
   0.187144012783604   0.901969198222230   0.252490339179272
   0.687144012783604   0.901969198222230   0.252490339179272
   0.423390850139537   0.131065639135599   0.154732176679885
   0.923390850139537   0.131065639135599   0.154732176679885
   0.163454234224342   0.173805398101450   0.578505514609490
   0.663454234224342   0.173805398101450   0.578505514609490
   0.224186217795655   0.314162212604921   0.273989951131038
   0.724186217795655   0.314162212604921   0.273989951131038
   0.006897002069979   0.193465829773994   0.760243508697964
   0.506897002069979   0.193465829773994   0.760243508697964
   0.263985393300931   0.999847800046831   0.480430601988638
   0.763985393300931   0.999847800046831   0.480430601988638
   0.060953531525420   0.021527613316623   0.154037349488040
   0.560953531525420   0.021527613316623   0.154037349488040
   0.335572925456475   0.627966285231574   0.593041267392288
   0.835572925456475   0.627966285231574   0.593041267392288
   0.071115166665756   0.931189010191465   0.863053667871953
   0.571115166665756   0.931189010191465   0.863053667871953
   0.379312202875410   0.802936933451494   0.712298017940102
   0.879312202875410   0.802936933451494   0.712298017940102
   0.374914054376990   0.488076187177344   0.465494709687299
   0.874914054376990   0.488076187177344   0.465494709687299
   0.185618304773745   0.325240445964991   0.943740757618371
   0.685618304773745   0.325240445964991   0.943740757618371
