 VASP POSCAR/CONTCAR file created by 'ta
9.239305061617324
     1.0000000000000000    0.0000000000000000    0.0000000000000000
     0.0000000000000000    1.0000000043698918    0.0000000000000000
     0.0000000000000000    0.0000000000000000    0.9999999974747836
   Fe     O     Pb 
   64     16    1
Direct
  0.2064061146323743  0.9844240515590424  0.4981824028893394
  0.5446646203953044  0.9296804215060246  0.1311264306002548
  0.6315288421188449  0.8515506932877147  0.7022350997559064
  0.2713538475577786  0.7943234055114895  0.9250626998227112
  0.1731025730502945  0.3813097837932643  0.8654415623140039
  0.9692752695924072  0.5184812613883171  0.1959523999282530
  0.8772037888415022  0.0717372073752642  0.8669662367615436
  0.4052196573388240  0.1386112293653464  0.9277252968095362
  0.1668440177120454  0.0394437687765156  0.9017818436128489
  0.7494847358790704  0.5687712870680806  0.3010174020528371
  0.7513521213442769  0.8693187144421206  0.9185366151881355
  0.8808789586714494  0.6720188790466327  0.0185660729892896
  0.3850830746832379  0.6707709900429139  0.3538566324210587
  0.8173440430962214  0.8454489039931808  0.1754981890751425
  0.4722591350022198  0.9367819308287682  0.8669307437569895
  0.5312075346380770  0.2071533603963926  0.5591795766776109
  0.0864832967228593  0.1642769888879382  0.6802312212051569
  0.9062345079319389  0.0932910964120037  0.0882894631227210
  0.9651760510562194  0.2600541099892696  0.2822925169292819
  0.1189255097635494  0.6202959887505113  0.8704445335954768
  0.9313603836156822  0.9753901773051664  0.6305652554106096
  0.9102313842637036  0.7560302658576074  0.7271255490668667
  0.6155373736231067  0.6600476286354351  0.0164917384639783
  0.1122535859482758  0.8367860086284054  0.7114386730580771
  0.5960904921120870  0.4299097530954539  0.7523685715649320
  0.9049227118372125  0.2897456794115891  0.0028415474545489
  0.6395641351183827  0.3959993423440344  0.1569295914749476
  0.7264447013371745  0.3572752815105491  0.8872350130989375
  0.6893926317673441  0.1882950085975432  0.2109185428689161
  0.7308209348919678  0.6828378576612213  0.5525488885205219
  0.3463790628780060  0.3105380309830079  0.0625042851777661
  0.9229822238265658  0.8501601555699135  0.3946893889910777
  0.9676082743589763  0.6485087680439930  0.4755173586944409
  0.1920251879396637  0.3902415272516760  0.2137920284500510
  0.1123008451773460  0.7996273703259106  0.2798987016257249
  0.7908886684119895  0.2297983395974835  0.6829127912862026
  0.1483328305064739  0.2043435863277195  0.0803472324578494
  0.3118350073640702  0.5351680119244366  0.0477475442234557
  0.5700667132545911  0.1852412166320048  0.7828588245027159
  0.6363208847280124  0.1039723102443606  0.0031517427341784
  0.4410217943732759  0.6495198893323240  0.9431269703962177
  0.4136723046561473  0.5031127898067691  0.8061207588066680
  0.8415472360609700  0.5482044101463120  0.7902858234695669
  0.3074137828641389  0.7775774516182965  0.1453421858614796
  0.8580071096622268  0.3962970626988874  0.5690012019004488
  0.3376193686783052  0.1256022404049421  0.7143234170114937
  0.4043798611752835  0.7129706151908627  0.7151694168321620
  0.3371613539204322  0.0082772915117001  0.1181398539801722
  0.1788681717812557  0.4951610209313690  0.6599370212491774
  0.0255949817507417  0.8744525346870574  0.0220229442618295
  0.8423787763588699  0.0957192435318544  0.3863097892378937
  0.0762330131117648  0.0550632065617779  0.2455993226679312
  0.1263867868802841  0.2297791334093211  0.4480396298480938
  0.4288189587211801  0.9050082703065360  0.4636993630556268
  0.6162962502563766  0.8079971067470463  0.3013850420163436
  0.7017976012879920  0.6857227017522195  0.8110635621691226
  0.7730031179331261  0.4979425795555646  0.0660621136707912
  0.3107745360882478  0.8888111949649214  0.6775769548734367
  0.6659815433379096  0.2724295043493363  0.3959976936678908
  0.7366266895684032  0.9540003991651131  0.4084233250151048
  0.9502469241085618  0.2000363172302776  0.5438854462972476
  0.5047963101610980  0.0975449582104559  0.3158137891214622
  0.1571747155826458  0.6951285298225394  0.5425970226160756
  0.2414305353285016  0.1128458360715216  0.3673122082862818
  0.9785337569484677  0.5175140212469421  0.6449630754445723
  0.6960643096059150  0.5238986607395026  0.6249148301430481
  0.3001591660133890  0.8922927638804348  0.3248149994130717
  0.5416112393695176  0.6971342877122111  0.5372551802392566
  0.4920830280769017  0.0447897720133813  0.5336800002558426
  0.1323506738207748  0.6718598304743630  0.1089082032733540
  0.7302601017017423  0.0402317387188761  0.6233726139713927
  0.3858132047486668  0.2128109289795385  0.2968757457526652
  0.2015487631115164  0.5332041001972646  0.3479914419700424
  0.2253844704215887  0.2846773504847430  0.6086672278965130
  0.9336405099613366  0.2559266501724817  0.7783165681359667
  0.9672398162329489  0.4668808339365998  0.9373592393299615
  0.9040921607166575  0.4445751625487706  0.3759970940732568
  0.3700512605390956  0.4984753969569932  0.6166467551244779
  0.5535473501256714  0.6469487089118652  0.2092296726970251
  0.3999410970808496  0.2873351321112640  0.8256844774914767
  0.4807868749439081  0.4271923259584373  0.4142624244609948
