 VASP POSCAR/CONTCAR file created by 'ta
9.188153739549907
     1.0000000000000000    0.0000000000000000    0.0000000000000000
     0.0000000000000000    1.0000000043698918    0.0000000000000000
     0.0000000000000000    0.0000000000000000    0.9999999974747837
   Fe   O 
   55   27
Direct
  0.4588440952921594  0.5758926749211063  0.4781032209167101
  0.5839434495575940  0.8881033604265620  0.1299166371145224
  0.6251146059406827  0.0189151004032372  0.7942868267017131
  0.1222984907567684  0.0904549498508244  0.8862984729841301
  0.8654230686006783  0.2691815384431899  0.2827236017036497
  0.0376617185391676  0.8499901594085228  0.7081570996338751
  0.4391288047897267  0.8499301025724799  0.3062315016366185
  0.1891426689750190  0.9083555407677459  0.4955677393015899
  0.4584861992834445  0.2283781240121546  0.3499090078951432
  0.8598836771435499  0.5640147991895115  0.1158878814051870
  0.8998476419951047  0.8815193830913265  0.3787091388654291
  0.2377691190175695  0.2730623679587126  0.8404750764734932
  0.8391882259802950  0.7673862978450555  0.9061767444462205
  0.3885503999646061  0.1983322704464410  0.1220600730358736
  0.5833979076397336  0.4637434722029002  0.6792378793383660
  0.3570479176751025  0.5100393837404020  0.9420417484906837
  0.5558352597608529  0.0625364025036410  0.2358934083232437
  0.7283178845255296  0.0975480052088015  0.3821795452401173
  0.0403202450839031  0.8449439469077140  0.9760790915987203
  0.2074413170612186  0.6122459464600783  0.6426377158604468
  0.6167904354922700  0.2601117541863008  0.0566933066273899
  0.7749466208824011  0.9902760800070306  0.9829522994054283
  0.5931073075872384  0.2282694087075419  0.7297480962788667
  0.3924113206791355  0.4356434509649271  0.3351192226667695
  0.9608995609228655  0.6723364534704642  0.8005879418519541
  0.3289588955671308  0.3321554338274180  0.6198505128017945
  0.9529184492732337  0.4155014355985495  0.8804227828422390
  0.4028951056270353  0.8135157114397894  0.5214578032479862
  0.0748896632183926  0.1633820187161035  0.6178359178996419
  0.9980574370462654  0.5982183213993471  0.2848517543466277
  0.3283799574486909  0.9217194207174396  0.6960811738953152
  0.2102069678943924  0.5630127517910399  0.1157426901404732
  0.8145790921729724  0.1658571547362994  0.7453111891207931
  0.9512285277336284  0.4523912733165584  0.4147592816982434
  0.1692717784996542  0.1215332548456478  0.1015910132783692
  0.3121291857491815  0.0775787646370254  0.5407976717554195
  0.2133048228495152  0.7101095835798845  0.3966336096030711
  0.7280664697800073  0.7189148467025491  0.3120150749164506
  0.0198149841834898  0.4252056594236945  0.6477190742902035
  0.9964098129175513  0.0852325981314064  0.2307549162725069
  0.3426857204124126  0.9394414958367101  0.9351438301369853
  0.6898414774636956  0.7094340552097881  0.0617857659592049
  0.8994980924325233  0.8348403212276524  0.1349068375232136
  0.2032158240095279  0.2506905883060115  0.3483681232052528
  0.3818199483407622  0.7082804104010850  0.7788351489300700
  0.9884452059100031  0.6421317986218098  0.5653017903185776
  0.7432783133809890  0.3877821540532226  0.8495748884800400
  0.8648253038314936  0.1909255217917056  0.0281926838262645
  0.3794442069797454  0.6721374720322116  0.2305175742032094
  0.2778580814066221  0.0368987046620400  0.2976442727937752
  0.2082645951798633  0.8806916223603458  0.1345842542165786
  0.6360267520518923  0.3853119718725010  0.4397584493677928
  0.4191514563578362  0.1370408852490297  0.8121215440954447
  0.0590760096718312  0.5653675608222135  0.9949249212515083
  0.8222370193444960  0.5401742999717332  0.7032020164257815
  0.7678285411215747  0.8141818014462032  0.6507479126057529
  0.8272359012077760  0.3036636864771838  0.5283462515793779
  0.0770274933885143  0.3474469013191809  0.2127765465958427
  0.5314019298805731  0.0516116186301186  0.5276882746988271
  0.5853526387986191  0.8029973464316369  0.8612261356538295
  0.6123152151924161  0.4929264540487767  0.9962523228605072
  0.6452298508696027  0.5539836902325327  0.2828231071202711
  0.1732478991154279  0.4408071483076429  0.4882622375416028
  0.6675757179986481  0.8979451117079705  0.4439342608328894
  0.0296553605421925  0.8924166882054564  0.2338848577589747
  0.7202095869808580  0.0593990729584046  0.5871607475432186
  0.0168059956691165  0.0233841622420873  0.4913635470095151
  0.5519123768067125  0.6649701638353321  0.6468265506655612
  0.2122500048934150  0.7506841237369128  0.0059276573519926
  0.5120491002611376  0.3433733786558145  0.5484247411051543
  0.0454445605925836  0.3011808191091232  0.9893080831849049
  0.8145562009704981  0.0857834966149564  0.2055159907144709
  0.1717656843718547  0.4741484800813263  0.8296278831760989
  0.7102239205724692  0.4160919782090562  0.1554939866822040
  0.8149863611368575  0.7109195001339622  0.4795081547057178
  0.3563287443946735  0.3732279779190190  0.0830308081812484
  0.0419374350949624  0.7646809386993881  0.3980241660937088
  0.6892171963323971  0.5736335200921053  0.8453388039060216
  0.9477173553184174  0.0206468521969172  0.8450606194946042
  0.5229716994827575  0.6500443246519764  0.0510153024950562
  0.2141378364230288  0.7603508420843792  0.7409905231305915
  0.4716313996170121  0.4441650135549351  0.8236815936557594
